
     Program PWSCF v.7.5 starts on  5Oct2026 at 11:18:28 

     This program is part of the open-source Quantum ESPRESSO suite
     for quantum simulation of materials; please cite
         "P. Giannozzi et al., J. Phys.:Condens. Matter 21 395502 (2009);
         "P. Giannozzi et al., J. Phys.:Condens. Matter 29 465901 (2017);
         "P. Giannozzi et al., J. Chem. Phys. 152 154105 (2020);
          URL http://www.quantum-espresso.org", 
     in publications or presentations arising from this work. More details at
     http://www.quantum-espresso.org/quote

     Parallel version (MPI & OpenMP), running on       6 processor cores
     Number of MPI processes:                 1
     Threads/MPI process:                     6

     MPI processes distributed on     1 nodes
     8553 MiB available memory on the printing compute node when the environment starts

     Reading input from pw.in

     Current dimensions of program PWSCF are:
     Max number of different atomic species (ntypx) = 10
     Max number of k-points (npk) =  40000
     Max angular momentum in pseudopotentials (lmaxx) =  4
     file C.pbe-n-kjpaw_psl.1.0.0.UPF: wavefunction(s)  2S 2P renormalized
     file H.pbe-kjpaw_psl.1.0.0.UPF: wavefunction(s)  1S renormalized
     file O.pbe-n-kjpaw_psl.1.0.0.UPF: wavefunction(s)  2S 2P renormalized

     IMPORTANT: XC functional enforced from input :
     Exchange-correlation= PBE
                           (   1   4   3   4   0   0   0)
     Any further DFT definition will be discarded
     Please, verify this is what you really want


     gamma-point specific algorithms are used

     Subspace diagonalization in iterative solution of the eigenvalue problem:
     a serial algorithm will be used


     G-vector sticks info
     --------------------
     sticks:   dense  smooth     PW     G-vecs:    dense   smooth      PW
     Sum       69849   23281   5813             13885619  2672421  333715

     Using Slab Decomposition



     bravais-lattice index     =            0
     lattice parameter (alat)  =      30.2356  a.u.
     unit-cell volume          =   27641.1781 (a.u.)^3
     number of atoms/cell      =            9
     number of atomic types    =            3
     number of electrons       =        28.00
     number of Kohn-Sham states=           14
     kinetic-energy cutoff     =      80.0000  Ry
     charge density cutoff     =     960.0000  Ry
     scf convergence threshold =      1.0E-10
     mixing beta               =       0.3000
     number of iterations used =            8  plain     mixing
     Exchange-correlation= PBE
                           (   1   4   3   4   0   0   0)

     celldm(1)=  30.235618  celldm(2)=   0.000000  celldm(3)=   0.000000
     celldm(4)=   0.000000  celldm(5)=   0.000000  celldm(6)=   0.000000

     crystal axes: (cart. coord. in units of alat)
               a(1) = (   1.000000   0.000000   0.000000 )  
               a(2) = (   0.000000   1.000000   0.000000 )  
               a(3) = (   0.000000   0.000000   1.000000 )  

     reciprocal axes: (cart. coord. in units 2 pi/alat)
               b(1) = (  1.000000  0.000000  0.000000 )  
               b(2) = (  0.000000  1.000000  0.000000 )  
               b(3) = (  0.000000  0.000000  1.000000 )  


     PseudoPot. # 1 for C  read from file:
     ./PSEUDO/C.pbe-n-kjpaw_psl.1.0.0.UPF
     MD5 check sum: 5f16ad9a65e90284d1d834d4ab3b0f7d
     Pseudo is Projector augmented-wave + core cor, Zval =  4.0
     Generated using &quot;atomic&quot; code by A. Dal Corso  v.6.3
     Shape of augmentation charge: PSQ
     Using radial grid of 1073 points,  4 beta functions with: 
                l(1) =   0
                l(2) =   0
                l(3) =   1
                l(4) =   1
     Q(r) pseudized with 0 coefficients 


     PseudoPot. # 2 for H  read from file:
     ./PSEUDO/H.pbe-kjpaw_psl.1.0.0.UPF
     MD5 check sum: d81a744832360e4a8af0b0b5b123bc2a
     Pseudo is Projector augmented-wave, Zval =  1.0
     Generated using &quot;atomic&quot; code by A. Dal Corso  v.6.3MaX
     Shape of augmentation charge: PSQ
     Using radial grid of  929 points,  2 beta functions with: 
                l(1) =   0
                l(2) =   0
     Q(r) pseudized with 0 coefficients 


     PseudoPot. # 3 for O  read from file:
     ./PSEUDO/O.pbe-n-kjpaw_psl.1.0.0.UPF
     MD5 check sum: e99d9cef9b487d1ca56f5b95ecd0fd7a
     Pseudo is Projector augmented-wave + core cor, Zval =  6.0
     Generated using &quot;atomic&quot; code by A. Dal Corso  v.6.3
     Shape of augmentation charge: PSQ
     Using radial grid of 1095 points,  4 beta functions with: 
                l(1) =   0
                l(2) =   0
                l(3) =   1
                l(4) =   1
     Q(r) pseudized with 0 coefficients 


     atomic species   valence    mass     pseudopotential
     C                 4.00    12.01100     C ( 1.00)
     H                 1.00     1.00800     H ( 1.00)
     O                 6.00    15.99900     O ( 1.00)

     No symmetry found


                                    s                        frac. trans.

      isym =  1     identity                                     

 cryst.   s( 1) = (     1          0          0      )
                  (     0          1          0      )
                  (     0          0          1      )

 cart.    s( 1) = (  1.0000000  0.0000000  0.0000000 )
                  (  0.0000000  1.0000000  0.0000000 )
                  (  0.0000000  0.0000000  1.0000000 )


   Cartesian axes

     site n.     atom                  positions (alat units)
         1        O      tau(   1) = (   0.4053499   0.5017814   0.5005882  )
         2        H      tau(   2) = (   0.4720532   0.4335608   0.5042017  )
         3        C      tau(   3) = (   0.4529541   0.5658116   0.4996237  )
         4        H      tau(   4) = (   0.4217119   0.6281994   0.4949786  )
         5        C      tau(   5) = (   0.5421113   0.5586074   0.5000623  )
         6        H      tau(   6) = (   0.5836047   0.6118279   0.5017280  )
         7        C      tau(   7) = (   0.5775325   0.4796106   0.5002757  )
         8        O      tau(   8) = (   0.5324322   0.4110602   0.4992141  )
         9        H      tau(   9) = (   0.6451018   0.4702094   0.5026857  )

   Crystallographic axes

     site n.     atom                  positions (cryst. coord.)
         1        O      tau(   1) = (  0.4053499  0.5017814  0.5005882  )
         2        H      tau(   2) = (  0.4720532  0.4335608  0.5042017  )
         3        C      tau(   3) = (  0.4529541  0.5658116  0.4996237  )
         4        H      tau(   4) = (  0.4217119  0.6281994  0.4949786  )
         5        C      tau(   5) = (  0.5421113  0.5586074  0.5000623  )
         6        H      tau(   6) = (  0.5836047  0.6118279  0.5017280  )
         7        C      tau(   7) = (  0.5775325  0.4796106  0.5002757  )
         8        O      tau(   8) = (  0.5324322  0.4110602  0.4992141  )
         9        H      tau(   9) = (  0.6451018  0.4702094  0.5026857  )

     number of k points=     1
                       cart. coord. in units 2pi/alat
        k(    1) = (   0.0000000   0.0000000   0.0000000), wk =   2.0000000

                       cryst. coord.
        k(    1) = (   0.0000000   0.0000000   0.0000000), wk =   2.0000000

     Dense  grid:  6942810 G-vectors     FFT dimensions: ( 300, 300, 300)

     Smooth grid:  1336211 G-vectors     FFT dimensions: ( 180, 180, 180)

     Dynamical RAM for                 wfc:      35.67 MB

     Dynamical RAM for     wfc (w. buffer):      35.67 MB

     Dynamical RAM for           str. fact:     317.82 MB

     Dynamical RAM for           local pot:       0.00 MB

     Dynamical RAM for          nlocal pot:     122.31 MB

     Dynamical RAM for                qrad:       2.13 MB

     Dynamical RAM for          rho,v,vnew:     935.80 MB

     Dynamical RAM for               rhoin:     311.93 MB

     Dynamical RAM for            rho*nmix:    1695.02 MB

     Dynamical RAM for           G-vectors:     407.47 MB

     Dynamical RAM for          h,s,v(r/c):       0.02 MB

     Dynamical RAM for          <psi|beta>:       0.01 MB

     Dynamical RAM for                 psi:      71.35 MB

     Dynamical RAM for                hpsi:      71.35 MB

     Dynamical RAM for                spsi:      71.35 MB

     Dynamical RAM for      wfcinit/wfcrot:      71.35 MB

     Dynamical RAM for           addusdens:    4979.13 MB

     Dynamical RAM for          addusforce:    5667.73 MB

     Estimated static dynamical RAM per process >       3.50 GB

     Estimated max dynamical RAM per process >      10.69 GB

     Initial potential from superposition of free atoms

     starting charge      27.9998, renormalised to      28.0000

     negative rho (up, down):  1.473E-04 0.000E+00
     Starting wfcs are   24 randomized atomic wfcs
     Checking if some PAW data can be deallocated... 

     total cpu time spent up to now is       33.3 secs

     Self-consistent Calculation

     iteration #  1     ecut=    80.00 Ry     beta= 0.30
     Davidson diagonalization with overlap

---- Real-time Memory Report at c_bands before calling an iterative solver
          6823 MiB given to the printing process from OS
          -775 MiB allocation reported by mallinfo(arena+hblkhd)
          6076 MiB available memory on the node where the printing process lives
------------------
     ethr =  1.00E-02,  avg # of iterations =  2.0

     negative rho (up, down):  1.058E-05 0.000E+00

     total cpu time spent up to now is       60.5 secs

     total energy              =    -143.19628098 Ry
     estimated scf accuracy    <       0.78172171 Ry

     iteration #  2     ecut=    80.00 Ry     beta= 0.30
     Davidson diagonalization with overlap

---- Real-time Memory Report at c_bands before calling an iterative solver
          7554 MiB given to the printing process from OS
          -375 MiB allocation reported by mallinfo(arena+hblkhd)
          5668 MiB available memory on the node where the printing process lives
------------------
     ethr =  2.79E-03,  avg # of iterations =  2.0

     negative rho (up, down):  2.167E-04 0.000E+00

     total cpu time spent up to now is       85.5 secs

     total energy              =    -143.15491807 Ry
     estimated scf accuracy    <       0.32216237 Ry

     iteration #  3     ecut=    80.00 Ry     beta= 0.30
     Davidson diagonalization with overlap

---- Real-time Memory Report at c_bands before calling an iterative solver
          7595 MiB given to the printing process from OS
          -334 MiB allocation reported by mallinfo(arena+hblkhd)
          5625 MiB available memory on the node where the printing process lives
------------------
     ethr =  1.15E-03,  avg # of iterations =  8.0

     negative rho (up, down):  3.595E-05 0.000E+00

     total cpu time spent up to now is      112.6 secs

     total energy              =    -143.27764037 Ry
     estimated scf accuracy    <       0.23078450 Ry

     iteration #  4     ecut=    80.00 Ry     beta= 0.30
     Davidson diagonalization with overlap

---- Real-time Memory Report at c_bands before calling an iterative solver
          7635 MiB given to the printing process from OS
          -294 MiB allocation reported by mallinfo(arena+hblkhd)
          5589 MiB available memory on the node where the printing process lives
------------------
     ethr =  8.24E-04,  avg # of iterations =  2.0

     negative rho (up, down):  7.881E-05 0.000E+00

     total cpu time spent up to now is      136.7 secs

     total energy              =    -143.22631132 Ry
     estimated scf accuracy    <       0.10148997 Ry

     iteration #  5     ecut=    80.00 Ry     beta= 0.30
     Davidson diagonalization with overlap

---- Real-time Memory Report at c_bands before calling an iterative solver
          7676 MiB given to the printing process from OS
          -253 MiB allocation reported by mallinfo(arena+hblkhd)
          5551 MiB available memory on the node where the printing process lives
------------------
     ethr =  3.62E-04,  avg # of iterations =  8.0

     negative rho (up, down):  1.654E-04 0.000E+00

     total cpu time spent up to now is      166.0 secs

     total energy              =    -143.32091419 Ry
     estimated scf accuracy    <       0.44362629 Ry

     iteration #  6     ecut=    80.00 Ry     beta= 0.30
     Davidson diagonalization with overlap

---- Real-time Memory Report at c_bands before calling an iterative solver
          7717 MiB given to the printing process from OS
          -212 MiB allocation reported by mallinfo(arena+hblkhd)
          5509 MiB available memory on the node where the printing process lives
------------------
     ethr =  3.62E-04,  avg # of iterations =  2.0

     negative rho (up, down):  1.640E-04 0.000E+00

     total cpu time spent up to now is      191.2 secs

     total energy              =    -143.20139380 Ry
     estimated scf accuracy    <       0.23977541 Ry

     iteration #  7     ecut=    80.00 Ry     beta= 0.30
     Davidson diagonalization with overlap

---- Real-time Memory Report at c_bands before calling an iterative solver
          7758 MiB given to the printing process from OS
          -171 MiB allocation reported by mallinfo(arena+hblkhd)
          5469 MiB available memory on the node where the printing process lives
------------------
     ethr =  3.62E-04,  avg # of iterations =  6.0

     negative rho (up, down):  1.431E-04 0.000E+00

     total cpu time spent up to now is      219.6 secs

     total energy              =    -143.29501573 Ry
     estimated scf accuracy    <       0.03460712 Ry

     iteration #  8     ecut=    80.00 Ry     beta= 0.30
     Davidson diagonalization with overlap

---- Real-time Memory Report at c_bands before calling an iterative solver
          7798 MiB given to the printing process from OS
          -130 MiB allocation reported by mallinfo(arena+hblkhd)
          5417 MiB available memory on the node where the printing process lives
------------------
     ethr =  1.24E-04,  avg # of iterations =  2.0

     negative rho (up, down):  1.443E-04 0.000E+00

     total cpu time spent up to now is      244.7 secs

     total energy              =    -143.28918414 Ry
     estimated scf accuracy    <       0.01222311 Ry

     iteration #  9     ecut=    80.00 Ry     beta= 0.30
     Davidson diagonalization with overlap

---- Real-time Memory Report at c_bands before calling an iterative solver
          7839 MiB given to the printing process from OS
           -90 MiB allocation reported by mallinfo(arena+hblkhd)
          5384 MiB available memory on the node where the printing process lives
------------------
     ethr =  4.37E-05,  avg # of iterations = 10.0

     negative rho (up, down):  1.610E-04 0.000E+00

     total cpu time spent up to now is      275.2 secs

     total energy              =    -143.30485744 Ry
     estimated scf accuracy    <       0.02825237 Ry

     iteration # 10     ecut=    80.00 Ry     beta= 0.30
     Davidson diagonalization with overlap

---- Real-time Memory Report at c_bands before calling an iterative solver
          7880 MiB given to the printing process from OS
           -49 MiB allocation reported by mallinfo(arena+hblkhd)
          5440 MiB available memory on the node where the printing process lives
------------------
     ethr =  4.37E-05,  avg # of iterations =  1.0

     negative rho (up, down):  1.744E-04 0.000E+00

     total cpu time spent up to now is      300.6 secs

     total energy              =    -143.29853218 Ry
     estimated scf accuracy    <       0.02524569 Ry

     iteration # 11     ecut=    80.00 Ry     beta= 0.30
     Davidson diagonalization with overlap

---- Real-time Memory Report at c_bands before calling an iterative solver
          7880 MiB given to the printing process from OS
           -49 MiB allocation reported by mallinfo(arena+hblkhd)
          5440 MiB available memory on the node where the printing process lives
------------------
     ethr =  4.37E-05,  avg # of iterations =  2.0

     negative rho (up, down):  1.483E-04 0.000E+00

     total cpu time spent up to now is      325.9 secs

     total energy              =    -143.29386347 Ry
     estimated scf accuracy    <       0.01207766 Ry

     iteration # 12     ecut=    80.00 Ry     beta= 0.30
     Davidson diagonalization with overlap

---- Real-time Memory Report at c_bands before calling an iterative solver
          7880 MiB given to the printing process from OS
           -49 MiB allocation reported by mallinfo(arena+hblkhd)
          5432 MiB available memory on the node where the printing process lives
------------------
     ethr =  4.31E-05,  avg # of iterations =  7.0

     negative rho (up, down):  1.204E-04 0.000E+00

     total cpu time spent up to now is      353.2 secs

     total energy              =    -143.29950008 Ry
     estimated scf accuracy    <       0.00179599 Ry

     iteration # 13     ecut=    80.00 Ry     beta= 0.30
     Davidson diagonalization with overlap

---- Real-time Memory Report at c_bands before calling an iterative solver
          7880 MiB given to the printing process from OS
           -49 MiB allocation reported by mallinfo(arena+hblkhd)
          5439 MiB available memory on the node where the printing process lives
------------------
     ethr =  6.41E-06,  avg # of iterations =  5.0

     negative rho (up, down):  1.124E-04 0.000E+00

     total cpu time spent up to now is      380.1 secs

     total energy              =    -143.30031803 Ry
     estimated scf accuracy    <       0.00266161 Ry

     iteration # 14     ecut=    80.00 Ry     beta= 0.30
     Davidson diagonalization with overlap

---- Real-time Memory Report at c_bands before calling an iterative solver
          7880 MiB given to the printing process from OS
           -49 MiB allocation reported by mallinfo(arena+hblkhd)
          5429 MiB available memory on the node where the printing process lives
------------------
     ethr =  6.41E-06,  avg # of iterations =  2.0

     negative rho (up, down):  1.138E-04 0.000E+00

     total cpu time spent up to now is      406.9 secs

     total energy              =    -143.30012617 Ry
     estimated scf accuracy    <       0.00376576 Ry

     iteration # 15     ecut=    80.00 Ry     beta= 0.30
     Davidson diagonalization with overlap

---- Real-time Memory Report at c_bands before calling an iterative solver
          7880 MiB given to the printing process from OS
           -49 MiB allocation reported by mallinfo(arena+hblkhd)
          5435 MiB available memory on the node where the printing process lives
------------------
     ethr =  6.41E-06,  avg # of iterations =  1.0

     negative rho (up, down):  1.164E-04 0.000E+00

     total cpu time spent up to now is      432.5 secs

     total energy              =    -143.30004565 Ry
     estimated scf accuracy    <       0.00351161 Ry

     iteration # 16     ecut=    80.00 Ry     beta= 0.30
     Davidson diagonalization with overlap

---- Real-time Memory Report at c_bands before calling an iterative solver
          7880 MiB given to the printing process from OS
           -49 MiB allocation reported by mallinfo(arena+hblkhd)
          5437 MiB available memory on the node where the printing process lives
------------------
     ethr =  6.41E-06,  avg # of iterations =  2.0

     negative rho (up, down):  1.210E-04 0.000E+00

     total cpu time spent up to now is      456.9 secs

     total energy              =    -143.29991249 Ry
     estimated scf accuracy    <       0.00374353 Ry

     iteration # 17     ecut=    80.00 Ry     beta= 0.30
     Davidson diagonalization with overlap

---- Real-time Memory Report at c_bands before calling an iterative solver
          7880 MiB given to the printing process from OS
           -49 MiB allocation reported by mallinfo(arena+hblkhd)
          5433 MiB available memory on the node where the printing process lives
------------------
     ethr =  6.41E-06,  avg # of iterations =  1.0

     negative rho (up, down):  1.203E-04 0.000E+00

     total cpu time spent up to now is      481.4 secs

     total energy              =    -143.29903869 Ry
     estimated scf accuracy    <       0.00348184 Ry

     iteration # 18     ecut=    80.00 Ry     beta= 0.30
     Davidson diagonalization with overlap

---- Real-time Memory Report at c_bands before calling an iterative solver
          7880 MiB given to the printing process from OS
           -49 MiB allocation reported by mallinfo(arena+hblkhd)
          5426 MiB available memory on the node where the printing process lives
------------------
     ethr =  6.41E-06,  avg # of iterations =  1.0

     negative rho (up, down):  1.175E-04 0.000E+00

     total cpu time spent up to now is      506.0 secs

     total energy              =    -143.29849317 Ry
     estimated scf accuracy    <       0.00201270 Ry

     iteration # 19     ecut=    80.00 Ry     beta= 0.30
     Davidson diagonalization with overlap

---- Real-time Memory Report at c_bands before calling an iterative solver
          7880 MiB given to the printing process from OS
           -49 MiB allocation reported by mallinfo(arena+hblkhd)
          5433 MiB available memory on the node where the printing process lives
------------------
     ethr =  6.41E-06,  avg # of iterations =  6.0

     negative rho (up, down):  1.154E-04 0.000E+00

     total cpu time spent up to now is      531.8 secs

     total energy              =    -143.29902504 Ry
     estimated scf accuracy    <       0.00005996 Ry

     iteration # 20     ecut=    80.00 Ry     beta= 0.30
     Davidson diagonalization with overlap

---- Real-time Memory Report at c_bands before calling an iterative solver
          7880 MiB given to the printing process from OS
           -49 MiB allocation reported by mallinfo(arena+hblkhd)
          5434 MiB available memory on the node where the printing process lives
------------------
     ethr =  2.14E-07,  avg # of iterations =  6.0

     negative rho (up, down):  1.152E-04 0.000E+00

     total cpu time spent up to now is      558.6 secs

     total energy              =    -143.29904847 Ry
     estimated scf accuracy    <       0.00006379 Ry

     iteration # 21     ecut=    80.00 Ry     beta= 0.30
     Davidson diagonalization with overlap

---- Real-time Memory Report at c_bands before calling an iterative solver
          7880 MiB given to the printing process from OS
           -49 MiB allocation reported by mallinfo(arena+hblkhd)
          5436 MiB available memory on the node where the printing process lives
------------------
     ethr =  2.14E-07,  avg # of iterations =  6.0

     negative rho (up, down):  1.166E-04 0.000E+00

     total cpu time spent up to now is      585.1 secs

     total energy              =    -143.29916534 Ry
     estimated scf accuracy    <       0.00008001 Ry

     iteration # 22     ecut=    80.00 Ry     beta= 0.30
     Davidson diagonalization with overlap

---- Real-time Memory Report at c_bands before calling an iterative solver
          7880 MiB given to the printing process from OS
           -49 MiB allocation reported by mallinfo(arena+hblkhd)
          5434 MiB available memory on the node where the printing process lives
------------------
     ethr =  2.14E-07,  avg # of iterations =  8.0

     negative rho (up, down):  1.172E-04 0.000E+00

     total cpu time spent up to now is      613.5 secs

     total energy              =    -143.29923120 Ry
     estimated scf accuracy    <       0.00069744 Ry

     iteration # 23     ecut=    80.00 Ry     beta= 0.30
     Davidson diagonalization with overlap

---- Real-time Memory Report at c_bands before calling an iterative solver
          7880 MiB given to the printing process from OS
           -49 MiB allocation reported by mallinfo(arena+hblkhd)
          5433 MiB available memory on the node where the printing process lives
------------------
     ethr =  2.14E-07,  avg # of iterations =  1.0

     negative rho (up, down):  1.166E-04 0.000E+00

     total cpu time spent up to now is      638.4 secs

     total energy              =    -143.29901909 Ry
     estimated scf accuracy    <       0.00068845 Ry

     iteration # 24     ecut=    80.00 Ry     beta= 0.30
     Davidson diagonalization with overlap

---- Real-time Memory Report at c_bands before calling an iterative solver
          7880 MiB given to the printing process from OS
           -49 MiB allocation reported by mallinfo(arena+hblkhd)
          5434 MiB available memory on the node where the printing process lives
------------------
     ethr =  2.14E-07,  avg # of iterations =  5.0

     negative rho (up, down):  1.157E-04 0.000E+00

     total cpu time spent up to now is      665.5 secs

     total energy              =    -143.29906339 Ry
     estimated scf accuracy    <       0.00011656 Ry

     iteration # 25     ecut=    80.00 Ry     beta= 0.30
     Davidson diagonalization with overlap

---- Real-time Memory Report at c_bands before calling an iterative solver
          7880 MiB given to the printing process from OS
           -49 MiB allocation reported by mallinfo(arena+hblkhd)
          5437 MiB available memory on the node where the printing process lives
------------------
     ethr =  2.14E-07,  avg # of iterations =  2.0

     negative rho (up, down):  1.148E-04 0.000E+00

     total cpu time spent up to now is      691.6 secs

     total energy              =    -143.29905734 Ry
     estimated scf accuracy    <       0.00009902 Ry

     iteration # 26     ecut=    80.00 Ry     beta= 0.30
     Davidson diagonalization with overlap

---- Real-time Memory Report at c_bands before calling an iterative solver
          7880 MiB given to the printing process from OS
           -49 MiB allocation reported by mallinfo(arena+hblkhd)
          5440 MiB available memory on the node where the printing process lives
------------------
     ethr =  2.14E-07,  avg # of iterations =  2.0

     negative rho (up, down):  1.139E-04 0.000E+00

     total cpu time spent up to now is      716.6 secs

     total energy              =    -143.29904238 Ry
     estimated scf accuracy    <       0.00006931 Ry

     iteration # 27     ecut=    80.00 Ry     beta= 0.30
     Davidson diagonalization with overlap

---- Real-time Memory Report at c_bands before calling an iterative solver
          7880 MiB given to the printing process from OS
           -49 MiB allocation reported by mallinfo(arena+hblkhd)
          5433 MiB available memory on the node where the printing process lives
------------------
     ethr =  2.14E-07,  avg # of iterations =  8.0

     negative rho (up, down):  1.135E-04 0.000E+00

     total cpu time spent up to now is      743.7 secs

     total energy              =    -143.29906139 Ry
     estimated scf accuracy    <       0.00000127 Ry

     iteration # 28     ecut=    80.00 Ry     beta= 0.30
     Davidson diagonalization with overlap

---- Real-time Memory Report at c_bands before calling an iterative solver
          7880 MiB given to the printing process from OS
           -49 MiB allocation reported by mallinfo(arena+hblkhd)
          5433 MiB available memory on the node where the printing process lives
------------------
     ethr =  4.53E-09,  avg # of iterations =  8.0

     negative rho (up, down):  1.134E-04 0.000E+00

     total cpu time spent up to now is      772.7 secs

     total energy              =    -143.29906323 Ry
     estimated scf accuracy    <       0.00000209 Ry

     iteration # 29     ecut=    80.00 Ry     beta= 0.30
     Davidson diagonalization with overlap

---- Real-time Memory Report at c_bands before calling an iterative solver
          7880 MiB given to the printing process from OS
           -49 MiB allocation reported by mallinfo(arena+hblkhd)
          5433 MiB available memory on the node where the printing process lives
------------------
     ethr =  4.53E-09,  avg # of iterations =  1.0

     negative rho (up, down):  1.133E-04 0.000E+00

     total cpu time spent up to now is      798.4 secs

     total energy              =    -143.29906237 Ry
     estimated scf accuracy    <       0.00000289 Ry

     iteration # 30     ecut=    80.00 Ry     beta= 0.30
     Davidson diagonalization with overlap

---- Real-time Memory Report at c_bands before calling an iterative solver
          7880 MiB given to the printing process from OS
           -49 MiB allocation reported by mallinfo(arena+hblkhd)
          5435 MiB available memory on the node where the printing process lives
------------------
     ethr =  4.53E-09,  avg # of iterations =  2.0

     negative rho (up, down):  1.134E-04 0.000E+00

     total cpu time spent up to now is      824.5 secs

     total energy              =    -143.29906211 Ry
     estimated scf accuracy    <       0.00000139 Ry

     iteration # 31     ecut=    80.00 Ry     beta= 0.30
     Davidson diagonalization with overlap

---- Real-time Memory Report at c_bands before calling an iterative solver
          7880 MiB given to the printing process from OS
           -49 MiB allocation reported by mallinfo(arena+hblkhd)
          5432 MiB available memory on the node where the printing process lives
------------------
     ethr =  4.53E-09,  avg # of iterations =  2.0

     negative rho (up, down):  1.134E-04 0.000E+00

     total cpu time spent up to now is      850.1 secs

     total energy              =    -143.29906189 Ry
     estimated scf accuracy    <       0.00000072 Ry

     iteration # 32     ecut=    80.00 Ry     beta= 0.30
     Davidson diagonalization with overlap

---- Real-time Memory Report at c_bands before calling an iterative solver
          7880 MiB given to the printing process from OS
           -49 MiB allocation reported by mallinfo(arena+hblkhd)
          5439 MiB available memory on the node where the printing process lives
------------------
     ethr =  2.55E-09,  avg # of iterations =  7.0

     negative rho (up, down):  1.134E-04 0.000E+00

     total cpu time spent up to now is      878.1 secs

     total energy              =    -143.29906251 Ry
     estimated scf accuracy    <       0.00000048 Ry

     iteration # 33     ecut=    80.00 Ry     beta= 0.30
     Davidson diagonalization with overlap

---- Real-time Memory Report at c_bands before calling an iterative solver
          7880 MiB given to the printing process from OS
           -49 MiB allocation reported by mallinfo(arena+hblkhd)
          5433 MiB available memory on the node where the printing process lives
------------------
     ethr =  1.72E-09,  avg # of iterations =  1.0

     negative rho (up, down):  1.134E-04 0.000E+00

     total cpu time spent up to now is      904.2 secs

     total energy              =    -143.29906238 Ry
     estimated scf accuracy    <       0.00000058 Ry

     iteration # 34     ecut=    80.00 Ry     beta= 0.30
     Davidson diagonalization with overlap

---- Real-time Memory Report at c_bands before calling an iterative solver
          7880 MiB given to the printing process from OS
           -49 MiB allocation reported by mallinfo(arena+hblkhd)
          5437 MiB available memory on the node where the printing process lives
------------------
     ethr =  1.72E-09,  avg # of iterations =  1.0

     negative rho (up, down):  1.135E-04 0.000E+00

     total cpu time spent up to now is      929.5 secs

     total energy              =    -143.29906272 Ry
     estimated scf accuracy    <       0.00000040 Ry

     iteration # 35     ecut=    80.00 Ry     beta= 0.30
     Davidson diagonalization with overlap

---- Real-time Memory Report at c_bands before calling an iterative solver
          7880 MiB given to the printing process from OS
           -49 MiB allocation reported by mallinfo(arena+hblkhd)
          5437 MiB available memory on the node where the printing process lives
------------------
     ethr =  1.42E-09,  avg # of iterations =  6.0

     negative rho (up, down):  1.135E-04 0.000E+00

     total cpu time spent up to now is      956.4 secs

     total energy              =    -143.29906300 Ry
     estimated scf accuracy    <       0.00000219 Ry

     iteration # 36     ecut=    80.00 Ry     beta= 0.30
     Davidson diagonalization with overlap

---- Real-time Memory Report at c_bands before calling an iterative solver
          7880 MiB given to the printing process from OS
           -49 MiB allocation reported by mallinfo(arena+hblkhd)
          5430 MiB available memory on the node where the printing process lives
------------------
     ethr =  1.42E-09,  avg # of iterations =  2.0

     negative rho (up, down):  1.135E-04 0.000E+00

     total cpu time spent up to now is      982.4 secs

     total energy              =    -143.29906216 Ry
     estimated scf accuracy    <       0.00000251 Ry

     iteration # 37     ecut=    80.00 Ry     beta= 0.30
     Davidson diagonalization with overlap

---- Real-time Memory Report at c_bands before calling an iterative solver
          7880 MiB given to the printing process from OS
           -49 MiB allocation reported by mallinfo(arena+hblkhd)
          5433 MiB available memory on the node where the printing process lives
------------------
     ethr =  1.42E-09,  avg # of iterations =  7.0

     negative rho (up, down):  1.134E-04 0.000E+00

     total cpu time spent up to now is     1009.8 secs

     total energy              =    -143.29906231 Ry
     estimated scf accuracy    <       0.00000039 Ry

     iteration # 38     ecut=    80.00 Ry     beta= 0.30
     Davidson diagonalization with overlap

---- Real-time Memory Report at c_bands before calling an iterative solver
          7880 MiB given to the printing process from OS
           -49 MiB allocation reported by mallinfo(arena+hblkhd)
          5437 MiB available memory on the node where the printing process lives
------------------
     ethr =  1.41E-09,  avg # of iterations =  1.0

     negative rho (up, down):  1.134E-04 0.000E+00

     total cpu time spent up to now is     1035.1 secs

     total energy              =    -143.29906235 Ry
     estimated scf accuracy    <       0.00000027 Ry

     iteration # 39     ecut=    80.00 Ry     beta= 0.30
     Davidson diagonalization with overlap

---- Real-time Memory Report at c_bands before calling an iterative solver
          7880 MiB given to the printing process from OS
           -49 MiB allocation reported by mallinfo(arena+hblkhd)
          5429 MiB available memory on the node where the printing process lives
------------------
     ethr =  9.70E-10,  avg # of iterations =  1.0

     negative rho (up, down):  1.134E-04 0.000E+00

     total cpu time spent up to now is     1060.7 secs

     total energy              =    -143.29906230 Ry
     estimated scf accuracy    <       0.00000030 Ry

     iteration # 40     ecut=    80.00 Ry     beta= 0.30
     Davidson diagonalization with overlap

---- Real-time Memory Report at c_bands before calling an iterative solver
          7880 MiB given to the printing process from OS
           -49 MiB allocation reported by mallinfo(arena+hblkhd)
          5437 MiB available memory on the node where the printing process lives
------------------
     ethr =  9.70E-10,  avg # of iterations =  2.0

     negative rho (up, down):  1.133E-04 0.000E+00

     total cpu time spent up to now is     1087.1 secs

     total energy              =    -143.29906221 Ry
     estimated scf accuracy    <       0.00000019 Ry

     iteration # 41     ecut=    80.00 Ry     beta= 0.30
     Davidson diagonalization with overlap

---- Real-time Memory Report at c_bands before calling an iterative solver
          7880 MiB given to the printing process from OS
           -49 MiB allocation reported by mallinfo(arena+hblkhd)
          5431 MiB available memory on the node where the printing process lives
------------------
     ethr =  6.63E-10,  avg # of iterations =  5.0

     negative rho (up, down):  1.134E-04 0.000E+00

     total cpu time spent up to now is     1116.6 secs

     total energy              =    -143.29906231 Ry
     estimated scf accuracy    <       0.00000014 Ry

     iteration # 42     ecut=    80.00 Ry     beta= 0.30
     Davidson diagonalization with overlap

---- Real-time Memory Report at c_bands before calling an iterative solver
          7880 MiB given to the printing process from OS
           -49 MiB allocation reported by mallinfo(arena+hblkhd)
          5432 MiB available memory on the node where the printing process lives
------------------
     ethr =  4.95E-10,  avg # of iterations =  2.0

     negative rho (up, down):  1.134E-04 0.000E+00

     total cpu time spent up to now is     1142.3 secs

     total energy              =    -143.29906231 Ry
     estimated scf accuracy    <       0.00000005 Ry

     iteration # 43     ecut=    80.00 Ry     beta= 0.30
     Davidson diagonalization with overlap

---- Real-time Memory Report at c_bands before calling an iterative solver
          7880 MiB given to the printing process from OS
           -49 MiB allocation reported by mallinfo(arena+hblkhd)
          5424 MiB available memory on the node where the printing process lives
------------------
     ethr =  1.64E-10,  avg # of iterations =  5.0

     negative rho (up, down):  1.134E-04 0.000E+00

     total cpu time spent up to now is     1170.0 secs

     total energy              =    -143.29906233 Ry
     estimated scf accuracy    <          7.0E-09 Ry

     iteration # 44     ecut=    80.00 Ry     beta= 0.30
     Davidson diagonalization with overlap

---- Real-time Memory Report at c_bands before calling an iterative solver
          7880 MiB given to the printing process from OS
           -49 MiB allocation reported by mallinfo(arena+hblkhd)
          5437 MiB available memory on the node where the printing process lives
------------------
     ethr =  2.51E-11,  avg # of iterations =  2.0

     negative rho (up, down):  1.134E-04 0.000E+00

     total cpu time spent up to now is     1195.8 secs

     total energy              =    -143.29906233 Ry
     estimated scf accuracy    <          4.9E-09 Ry

     iteration # 45     ecut=    80.00 Ry     beta= 0.30
     Davidson diagonalization with overlap

---- Real-time Memory Report at c_bands before calling an iterative solver
          7880 MiB given to the printing process from OS
           -49 MiB allocation reported by mallinfo(arena+hblkhd)
          5433 MiB available memory on the node where the printing process lives
------------------
     ethr =  1.74E-11,  avg # of iterations =  5.0

     negative rho (up, down):  1.134E-04 0.000E+00

     total cpu time spent up to now is     1224.1 secs

     total energy              =    -143.29906234 Ry
     estimated scf accuracy    <       0.00000001 Ry

     iteration # 46     ecut=    80.00 Ry     beta= 0.30
     Davidson diagonalization with overlap

---- Real-time Memory Report at c_bands before calling an iterative solver
          7880 MiB given to the printing process from OS
           -49 MiB allocation reported by mallinfo(arena+hblkhd)
          5431 MiB available memory on the node where the printing process lives
------------------
     ethr =  1.74E-11,  avg # of iterations =  9.0

     negative rho (up, down):  1.134E-04 0.000E+00

     total cpu time spent up to now is     1253.4 secs

     total energy              =    -143.29906234 Ry
     estimated scf accuracy    <       0.00000005 Ry

     iteration # 47     ecut=    80.00 Ry     beta= 0.30
     Davidson diagonalization with overlap

---- Real-time Memory Report at c_bands before calling an iterative solver
          7880 MiB given to the printing process from OS
           -49 MiB allocation reported by mallinfo(arena+hblkhd)
          5428 MiB available memory on the node where the printing process lives
------------------
     ethr =  1.74E-11,  avg # of iterations =  2.0

     negative rho (up, down):  1.134E-04 0.000E+00

     total cpu time spent up to now is     1280.1 secs

     total energy              =    -143.29906235 Ry
     estimated scf accuracy    <       0.00000004 Ry

     iteration # 48     ecut=    80.00 Ry     beta= 0.30
     Davidson diagonalization with overlap

---- Real-time Memory Report at c_bands before calling an iterative solver
          7880 MiB given to the printing process from OS
           -49 MiB allocation reported by mallinfo(arena+hblkhd)
          5429 MiB available memory on the node where the printing process lives
------------------
     ethr =  1.74E-11,  avg # of iterations =  6.0

     negative rho (up, down):  1.134E-04 0.000E+00

     total cpu time spent up to now is     1307.4 secs

     total energy              =    -143.29906233 Ry
     estimated scf accuracy    <       0.00000008 Ry

     iteration # 49     ecut=    80.00 Ry     beta= 0.30
     Davidson diagonalization with overlap

---- Real-time Memory Report at c_bands before calling an iterative solver
          7880 MiB given to the printing process from OS
           -49 MiB allocation reported by mallinfo(arena+hblkhd)
          5421 MiB available memory on the node where the printing process lives
------------------
     ethr =  1.74E-11,  avg # of iterations = 10.0

     negative rho (up, down):  1.134E-04 0.000E+00

     total cpu time spent up to now is     1336.9 secs

     total energy              =    -143.29906233 Ry
     estimated scf accuracy    <       0.00000001 Ry

     iteration # 50     ecut=    80.00 Ry     beta= 0.30
     Davidson diagonalization with overlap

---- Real-time Memory Report at c_bands before calling an iterative solver
          7880 MiB given to the printing process from OS
           -49 MiB allocation reported by mallinfo(arena+hblkhd)
          5433 MiB available memory on the node where the printing process lives
------------------
     ethr =  1.74E-11,  avg # of iterations =  8.0

     negative rho (up, down):  1.134E-04 0.000E+00

     total cpu time spent up to now is     1366.1 secs

     total energy              =    -143.29906233 Ry
     estimated scf accuracy    <          1.7E-09 Ry

     iteration # 51     ecut=    80.00 Ry     beta= 0.30
     Davidson diagonalization with overlap

---- Real-time Memory Report at c_bands before calling an iterative solver
          7880 MiB given to the printing process from OS
           -49 MiB allocation reported by mallinfo(arena+hblkhd)
          5431 MiB available memory on the node where the printing process lives
------------------
     ethr =  6.17E-12,  avg # of iterations =  5.0

     negative rho (up, down):  1.134E-04 0.000E+00

     total cpu time spent up to now is     1393.6 secs

     total energy              =    -143.29906233 Ry
     estimated scf accuracy    <          4.1E-10 Ry

     iteration # 52     ecut=    80.00 Ry     beta= 0.30
     Davidson diagonalization with overlap

---- Real-time Memory Report at c_bands before calling an iterative solver
          7880 MiB given to the printing process from OS
           -49 MiB allocation reported by mallinfo(arena+hblkhd)
          5433 MiB available memory on the node where the printing process lives
------------------
     ethr =  1.46E-12,  avg # of iterations =  2.0

     negative rho (up, down):  1.134E-04 0.000E+00

     total cpu time spent up to now is     1419.3 secs

     total energy              =    -143.29906233 Ry
     estimated scf accuracy    <          1.8E-10 Ry

     iteration # 53     ecut=    80.00 Ry     beta= 0.30
     Davidson diagonalization with overlap

---- Real-time Memory Report at c_bands before calling an iterative solver
          7880 MiB given to the printing process from OS
           -49 MiB allocation reported by mallinfo(arena+hblkhd)
          5431 MiB available memory on the node where the printing process lives
------------------
     ethr =  6.27E-13,  avg # of iterations = 10.0

     negative rho (up, down):  1.134E-04 0.000E+00

     total cpu time spent up to now is     1449.0 secs

     total energy              =    -143.29906233 Ry
     estimated scf accuracy    <          1.6E-10 Ry

     iteration # 54     ecut=    80.00 Ry     beta= 0.30
     Davidson diagonalization with overlap

---- Real-time Memory Report at c_bands before calling an iterative solver
          7880 MiB given to the printing process from OS
           -49 MiB allocation reported by mallinfo(arena+hblkhd)
          5425 MiB available memory on the node where the printing process lives
------------------
     ethr =  5.82E-13,  avg # of iterations =  2.0

     negative rho (up, down):  1.134E-04 0.000E+00

     total cpu time spent up to now is     1477.1 secs

     total energy              =    -143.29906233 Ry
     estimated scf accuracy    <          1.4E-10 Ry

     iteration # 55     ecut=    80.00 Ry     beta= 0.30
     Davidson diagonalization with overlap

---- Real-time Memory Report at c_bands before calling an iterative solver
          7880 MiB given to the printing process from OS
           -49 MiB allocation reported by mallinfo(arena+hblkhd)
          5431 MiB available memory on the node where the printing process lives
------------------
     ethr =  5.02E-13,  avg # of iterations =  2.0

     negative rho (up, down):  1.134E-04 0.000E+00

     total cpu time spent up to now is     1502.5 secs

     End of self-consistent calculation

          k = 0.0000 0.0000 0.0000 (166858 PWs)   bands (ev):

   -27.3197 -25.6990 -19.4203 -16.2867 -14.9561 -12.8070 -11.6675 -10.9490
   -10.6027 -10.4880  -9.2672  -9.0237  -6.2952  -6.2275

     occupation numbers 
     1.0000   1.0000   1.0000   1.0000   1.0000   1.0000   1.0000   1.0000
     1.0000   1.0000   1.0000   1.0000   1.0000   1.0000

     highest occupied level (ev):    -6.2275

!    total energy              =    -143.29906233 Ry
     total all-electron energy =      -534.285117 Ry
     estimated scf accuracy    <          6.0E-11 Ry

     The total energy is the sum of the following terms:
     one-electron contribution =    -369.82665945 Ry
     hartree contribution      =     189.34251126 Ry
     xc contribution           =     -31.42414991 Ry
     ewald contribution        =     106.29200402 Ry
     one-center paw contrib.   =     -37.68276825 Ry
      -> PAW hartree energy AE =      85.69167173 Ry
      -> PAW hartree energy PS =     -85.59697322 Ry
      -> PAW xc energy AE      =     -68.15363514 Ry
      -> PAW xc energy PS      =      30.37616839 Ry
      -> total E_H with PAW    =     189.43720977 Ry
      -> total E_XC with PAW   =     -69.20161666 Ry

     convergence has been achieved in  55 iterations

     negative rho (up, down):  1.134E-04 0.000E+00

     Forces acting on atoms (cartesian axes, Ry/au):

     atom    1 type  3   force =     0.02309437    0.02483711    0.00488123
     atom    2 type  2   force =    -0.01797928   -0.00279195   -0.01045974
     atom    3 type  1   force =    -0.02099072   -0.01908852   -0.01115895
     atom    4 type  2   force =     0.01337201   -0.00882256    0.00547136
     atom    5 type  1   force =    -0.00233902   -0.01501353    0.00502769
     atom    6 type  2   force =    -0.00068449    0.01320348   -0.00132520
     atom    7 type  1   force =    -0.00695838    0.01749599    0.00322925
     atom    8 type  3   force =     0.00953293   -0.00746009    0.00915526
     atom    9 type  2   force =     0.00295258   -0.00235993   -0.00482089
     The non-local contrib.  to forces
     atom    1 type  3   force =     1.76056100    1.58647654    0.00380061
     atom    2 type  2   force =     0.07507148   -0.02248247   -0.00664018
     atom    3 type  1   force =    -0.13438672   -0.21370881    0.00345147
     atom    4 type  2   force =     0.03405757   -0.06442086    0.00522899
     atom    5 type  1   force =    -0.02440583   -0.05629077    0.01791543
     atom    6 type  2   force =    -0.04887879   -0.06178062   -0.00203227
     atom    7 type  1   force =    -0.19914789   -0.37411614   -0.01582258
     atom    8 type  3   force =    -0.19216760    2.40703816    0.13477426
     atom    9 type  2   force =    -0.07887527    0.01057984   -0.00323537
     The ionic contribution  to forces
     atom    1 type  3   force =   -12.91825598   -5.33400536    0.11638418
     atom    2 type  2   force =    -2.74600171   -1.14462832    0.35123911
     atom    3 type  1   force =    -1.30849091    8.13468619   -0.03070533
     atom    4 type  2   force =    -1.42385300    2.99224694   -0.18490160
     atom    5 type  1   force =     3.83270289    6.10379345   -0.03711177
     atom    6 type  2   force =     2.01383240    2.70638785    0.06702731
     atom    7 type  1   force =     7.95549839    1.07583780    0.02599844
     atom    8 type  3   force =     1.17705160  -14.14934541   -0.41037652
     atom    9 type  2   force =     3.41751633   -0.38497313    0.10244618
     The local contribution  to forces
     atom    1 type  3   force =    11.19409156    3.78398280   -0.11521313
     atom    2 type  2   force =     2.65295049    1.16431890   -0.35505849
     atom    3 type  1   force =     1.42098895   -7.93963305    0.01628050
     atom    4 type  2   force =     1.40316816   -2.93664969    0.18514404
     atom    5 type  1   force =    -3.81084536   -6.06093238    0.02442331
     atom    6 type  2   force =    -1.96563950   -2.63140415   -0.06632023
     atom    7 type  1   force =    -7.76438752   -0.69073261   -0.00733722
     atom    8 type  3   force =    -0.97674121   11.75326334    0.28573571
     atom    9 type  2   force =    -3.33568784    0.37203337   -0.10403161
     The core correction contribution to forces
     atom    1 type  3   force =    -0.01329694   -0.01160534   -0.00008958
     atom    2 type  2   force =     0.00000000    0.00000000    0.00000000
     atom    3 type  1   force =     0.00090196   -0.00042823   -0.00018568
     atom    4 type  2   force =     0.00000000    0.00000000    0.00000000
     atom    5 type  1   force =     0.00020345   -0.00157819   -0.00019931
     atom    6 type  2   force =     0.00000000    0.00000000    0.00000000
     atom    7 type  1   force =     0.00107710    0.00651144    0.00039089
     atom    8 type  3   force =     0.00138718   -0.01841810   -0.00097717
     atom    9 type  2   force =     0.00000000    0.00000000    0.00000000
     The Hubbard contrib.    to forces
     atom    1 type  3   force =     0.00000000    0.00000000    0.00000000
     atom    2 type  2   force =     0.00000000    0.00000000    0.00000000
     atom    3 type  1   force =     0.00000000    0.00000000    0.00000000
     atom    4 type  2   force =     0.00000000    0.00000000    0.00000000
     atom    5 type  1   force =     0.00000000    0.00000000    0.00000000
     atom    6 type  2   force =     0.00000000    0.00000000    0.00000000
     atom    7 type  1   force =     0.00000000    0.00000000    0.00000000
     atom    8 type  3   force =     0.00000000    0.00000000    0.00000000
     atom    9 type  2   force =     0.00000000    0.00000000    0.00000000
     The SCF correction term to forces
     atom    1 type  3   force =    -0.00000552   -0.00001180   -0.00000081
     atom    2 type  2   force =     0.00000021   -0.00000034   -0.00000014
     atom    3 type  1   force =    -0.00000426   -0.00000490    0.00000012
     atom    4 type  2   force =    -0.00000096    0.00000078   -0.00000004
     atom    5 type  1   force =     0.00000559   -0.00000591    0.00000007
     atom    6 type  2   force =     0.00000115    0.00000012    0.00000003
     atom    7 type  1   force =     0.00000131   -0.00000479   -0.00000024
     atom    8 type  3   force =     0.00000272    0.00000165   -0.00000098
     atom    9 type  2   force =    -0.00000089   -0.00000028   -0.00000004

     Total force =     0.062419     Total SCF correction =     0.000018

     Writing all to output data dir ./tmp/diag119_replay144.save/ :
     XML data file, charge density, pseudopotentials, collected wavefunctions

     init_run     :     81.22s CPU     33.18s WALL (       1 calls)
     electrons    :   2131.50s CPU   1469.57s WALL (       1 calls)
     forces       :     34.55s CPU     28.66s WALL (       1 calls)

     Called by init_run:
     wfcinit      :     14.54s CPU      3.34s WALL (       1 calls)
     wfcinit:atom :      0.02s CPU      0.04s WALL (       1 calls)
     wfcinit:wfcr :     14.36s CPU      3.09s WALL (       1 calls)
     potinit      :     18.78s CPU      8.24s WALL (       1 calls)
     hinit0       :     40.35s CPU     10.86s WALL (       1 calls)

     Called by electrons:
     c_bands      :    781.76s CPU    176.85s WALL (      55 calls)
     sum_band     :    498.92s CPU    562.85s WALL (      55 calls)
     v_of_rho     :    411.70s CPU    227.35s WALL (      56 calls)
     v_h          :     56.87s CPU     24.45s WALL (      56 calls)
     v_xc         :    363.65s CPU    209.52s WALL (      57 calls)
     newd         :    263.54s CPU    431.07s WALL (      56 calls)
     PAW_pot      :     22.81s CPU      3.93s WALL (      56 calls)
     mix_rho      :    104.17s CPU     52.02s WALL (      55 calls)

     Called by c_bands:
     init_us_2    :      4.89s CPU      4.95s WALL (     112 calls)
     regterg      :    776.50s CPU    171.58s WALL (      55 calls)

     Called by sum_band:
     sum_band:wei :      0.00s CPU      0.00s WALL (      55 calls)
     sum_band:loo :    136.33s CPU     40.94s WALL (      55 calls)
     sum_band:buf :      0.00s CPU      0.00s WALL (      55 calls)
     sum_band:ini :      2.44s CPU      2.44s WALL (      55 calls)
     sum_band:cal :      2.67s CPU      1.20s WALL (      55 calls)
     sum_band:bec :      0.00s CPU      0.00s WALL (      55 calls)
     addusdens    :    303.63s CPU    498.03s WALL (      55 calls)
                                        0.00s GPU  (      55 calls)
     addusd:skk   :      7.79s CPU     21.06s WALL (     165 calls)
                                        0.00s GPU  (     165 calls)

     Called by *egterg:
     rdiaghg      :      0.69s CPU      0.21s WALL (     279 calls)
     regterg:over :      6.69s CPU      3.44s WALL (     224 calls)
     regterg:upda :      9.29s CPU      2.73s WALL (     224 calls)
     regterg:last :     14.01s CPU      5.58s WALL (     136 calls)
     h_psi        :    735.30s CPU    154.82s WALL (     280 calls)
     s_psi        :     19.32s CPU      3.88s WALL (     280 calls)
     g_psi        :      1.68s CPU      0.96s WALL (     224 calls)

     Called by h_psi:
     h_psi:calbec :      4.34s CPU      4.36s WALL (     280 calls)
     vloc_psi     :    725.63s CPU    146.19s WALL (     280 calls)
                                        0.00s GPU  (     280 calls)
     add_vuspsi   :      3.69s CPU      3.71s WALL (     280 calls)

     General routines
     calbec       :      7.32s CPU      5.67s WALL (     339 calls)
     fft          :    391.13s CPU     73.57s WALL (     623 calls)
     ffts         :     22.45s CPU      4.62s WALL (     111 calls)
     fftw         :    664.81s CPU    115.34s WALL (    2751 calls)
     interpolate  :     57.97s CPU     21.25s WALL (      56 calls)

     Parallel routines

     PAW routines
     PAW_pot      :     22.81s CPU      3.93s WALL (      56 calls)

     PWSCF        :  37m27.71s CPU  25m32.60s WALL


   This run was terminated on:  11:44: 1   5Oct2026            

=------------------------------------------------------------------------------=
   JOB DONE.
=------------------------------------------------------------------------------=
