9
dataset=dft_independent_neb9 source_id=audit_neb_01 frame=1 qPT_A=-0.4838914049 R_OO_A=2.4992404105 min_pair_A=1.0444127012 max_span_A=4.3447863792 source=${PROJECT_ROOT}/09_strict_comparison/versions/v025_independent_neb_single_points/attempt_20260719T121231Z/labels/frozen_independent_neb_path_labels_v025.cfg
O   6.484230476900  8.015465648100  8.000000393700
H   7.134008124200  7.197794015100  7.999999863400
C   7.287185379500  9.061029076100  8.000000260500
H   6.772977071800  10.027477542900  8.000000159900
C   8.659330640300  8.945112066500  8.000000123700
H   9.289592437400  9.830948711200  8.000000275300
C   9.231494724200  7.637764631300  7.999999865900
O   8.534858595000  6.586785505200  7.999999389400
H   10.335671267800  7.540636424800  8.000000162400
9
dataset=dft_independent_neb9 source_id=audit_neb_02 frame=2 qPT_A=-0.3880116402 R_OO_A=2.4577336044 min_pair_A=1.0662400369 max_span_A=4.3488557517 source=${PROJECT_ROOT}/09_strict_comparison/versions/v025_independent_neb_single_points/attempt_20260719T121231Z/labels/frozen_independent_neb_path_labels_v025.cfg
O   6.513053831200  7.988873674700  7.999999762300
H   7.202788641700  7.175772384900  7.999999713700
C   7.291034574800  9.047170634300  8.000000004400
H   6.764256511900  10.007973174300  8.000000662300
C   8.668241394000  8.946090681600  8.000000292100
H   9.295401330400  9.833943994600  8.000000828600
C   9.237528279500  7.641812522700  7.999999771500
O   8.533848559700  6.590001580700  7.999998733000
H   10.338045412700  7.529953956900  8.000000513500
9
dataset=dft_independent_neb9 source_id=audit_neb_03 frame=3 qPT_A=-0.2600575722 R_OO_A=2.4180062175 min_pair_A=1.0866731609 max_span_A=4.3506299298 source=${PROJECT_ROOT}/09_strict_comparison/versions/v025_independent_neb_single_points/attempt_20260719T121231Z/labels/frozen_independent_neb_path_labels_v025.cfg
O   6.530886638300  7.976919915100  7.999999427600
H   7.268748446900  7.152993382500  7.999999597700
C   7.288514904900  9.041007593800  7.999999866700
H   6.759828174800  10.003006030300  8.000000734800
C   8.672272721000  8.948799260400  7.999999996400
H   9.299047886200  9.836499351000  8.000000698600
C   9.234097582900  7.648510076100  7.999999869600
O   8.516732097100  6.597364957200  7.999999581800
H   10.330078689800  7.516785596400  8.000000404300
9
dataset=dft_independent_neb9 source_id=audit_neb_04 frame=4 qPT_A=-0.1278232809 R_OO_A=2.3966771893 min_pair_A=1.0863870125 max_span_A=4.3507245511 source=${PROJECT_ROOT}/09_strict_comparison/versions/v025_independent_neb_single_points/attempt_20260719T121231Z/labels/frozen_independent_neb_path_labels_v025.cfg
O   6.533667867300  7.980051131000  8.000000079800
H   7.320189885500  7.128059761600  7.999999666300
C   7.282171711000  9.040411357500  7.999999997900
H   6.759800427800  10.007980324800  8.000000714000
C   8.673095516600  8.950551793800  7.999999875300
H   9.300374147700  9.837545739600  8.000000374100
C   9.227989552300  7.655701243600  7.999999640300
O   8.496214012100  6.604378866600  7.999999834600
H   10.320260767800  7.507595097100  7.999999970000
9
dataset=dft_independent_neb9 source_id=audit_neb_05 frame=5 qPT_A=-0.0001802773 R_OO_A=2.3901218509 min_pair_A=1.0862919596 max_span_A=4.3507326620 source=${PROJECT_ROOT}/09_strict_comparison/versions/v025_independent_neb_single_points/attempt_20260719T121231Z/labels/frozen_independent_neb_path_labels_v025.cfg
O   6.528712683400  7.989990992300  8.000000003700
H   7.363381179900  7.100857487900  7.999999845900
C   7.275040247900  9.041478134500  8.000000485800
H   6.761321393800  10.015259931800  8.000001286600
C   8.673257860300  8.951130497600  7.999999860800
H   9.300847654500  9.837787856300  7.999999939200
C   9.223211292500  7.662395137600  7.999999538200
O   8.479539695100  6.609065059200  7.999999157000
H   10.312379659600  7.501525680000  8.000000027900
9
dataset=dft_independent_neb9 source_id=audit_neb_06 frame=6 qPT_A=0.1275092943 R_OO_A=2.3966462932 min_pair_A=1.0863878434 max_span_A=4.3507218845 source=${PROJECT_ROOT}/09_strict_comparison/versions/v025_independent_neb_single_points/attempt_20260719T121231Z/labels/frozen_independent_neb_path_labels_v025.cfg
O   6.518757910900  8.004154978500  8.000000586700
H   7.403415685200  7.069166909200  8.000000129700
C   7.267139875100  9.043758040500  8.000000015800
H   6.764423580500  10.024705713500  8.000000460800
C   8.672763717800  8.950785232000  7.999999791300
H   9.300776530800  9.837260529400  7.999999722900
C   9.219828575000  7.668766872900  7.999999857700
O   8.468499069100  6.610446662300  7.999999923600
H   10.306010863700  7.497663879300  7.999999649300
9
dataset=dft_independent_neb9 source_id=audit_neb_07 frame=7 qPT_A=0.2598589815 R_OO_A=2.4179600350 min_pair_A=1.0866732021 max_span_A=4.3506291520 source=${PROJECT_ROOT}/09_strict_comparison/versions/v025_independent_neb_single_points/attempt_20260719T121231Z/labels/frozen_independent_neb_path_labels_v025.cfg
O   6.505311493800  8.021182090300  8.000001031700
H   7.444067909100  7.028929091800  8.000000076100
C   7.258315002300  9.047124549500  8.000000388200
H   6.769827074000  10.037025463200  8.000000208000
C   8.671383909500  8.949426337400  7.999999151100
H   9.300229489500  9.835661004200  7.999999502500
C   9.218275376600  7.674951745000  7.999999623800
O   8.466439191000  6.606788620900  8.000000767500
H   10.301299243100  7.496025987200  7.999999363800
9
dataset=dft_independent_neb9 source_id=audit_neb_08 frame=8 qPT_A=0.3879764216 R_OO_A=2.4577152428 min_pair_A=1.0662398750 max_span_A=4.3488584883 source=${PROJECT_ROOT}/09_strict_comparison/versions/v025_independent_neb_single_points/attempt_20260719T121231Z/labels/frozen_independent_neb_path_labels_v025.cfg
O   6.492647676800  8.034886038300  8.000002598100
H   7.487524877900  6.974242652300  7.999999664600
C   7.250835420900  9.048125218000  8.000001564000
H   6.779594813900  10.048916112900  8.000000082400
C   8.670155735200  8.944711388700  8.000000128500
H   9.299019453400  9.831356856000  7.999999770300
C   9.223247806600  7.679382063600  7.999999123100
O   8.483634811000  6.593936890700  7.999997699000
H   10.304505827300  7.501844755700  7.999999378800
9
dataset=dft_independent_neb9 source_id=audit_neb_09 frame=9 qPT_A=0.4837794558 R_OO_A=2.4990582629 min_pair_A=1.0443962267 max_span_A=4.3447194643 source=${PROJECT_ROOT}/09_strict_comparison/versions/v025_independent_neb_single_points/attempt_20260719T121231Z/labels/frozen_independent_neb_path_labels_v025.cfg
O   6.489460626700  8.034659226300  8.000000356200
H   7.531179954000  6.916561842500  7.999999927400
C   7.249092923700  9.041063800500  8.000000268300
H   6.790343354600  10.050050088100  8.000000063900
C   8.672230155800  8.936048483400  8.000000196100
H   9.298058446400  9.825032480500  8.000000152000
C   9.237544048200  7.680389349100  7.999999857200
O   8.518343162000  6.575574630000  7.999999421500
H   10.319896530900  7.516506798700  7.999999552700
