9
dataset=mtp_neb_basin_invalid_collapse source_id=basin_mtp_neb_01 frame=1 qPT_A=-0.4838914049 R_OO_A=2.4992404105 min_pair_A=1.0444127012 max_span_A=4.3447863792 source=${PROJECT_ROOT}/09_strict_comparison/versions/v031_secondary_mtp_neb/attempt_20260722T220236Z/branches/basin/secondary_mtp_neb_final_path_v031.cfg
O   6.484230476900  8.015465648100  8.000000393700
H   7.134008124200  7.197794015100  7.999999863400
C   7.287185379500  9.061029076100  8.000000260500
H   6.772977071800  10.027477542900  8.000000159900
C   8.659330640300  8.945112066500  8.000000123700
H   9.289592437400  9.830948711200  8.000000275300
C   9.231494724200  7.637764631300  7.999999865900
O   8.534858595000  6.586785505200  7.999999389400
H   10.335671267800  7.540636424800  8.000000162400
9
dataset=mtp_neb_basin_invalid_collapse source_id=basin_mtp_neb_02 frame=2 qPT_A=-0.3909362809 R_OO_A=2.4534485598 min_pair_A=1.0631188892 max_span_A=4.3502590540 source=${PROJECT_ROOT}/09_strict_comparison/versions/v031_secondary_mtp_neb/attempt_20260722T220236Z/branches/basin/secondary_mtp_neb_final_path_v031.cfg
O   6.514828338123  7.987358474683  7.999999625205
H   7.200448902299  7.174864650383  7.999999184921
C   7.291433800690  9.047491458933  8.000000182174
H   6.761822109523  10.007263989400  8.000000679996
C   8.668380605329  8.946475687547  8.000000270237
H   9.298311375419  9.833260809641  8.000000843874
C   9.236860446748  7.641903223605  7.999999674103
O   8.532096858811  6.590921024934  7.999998854163
H   10.338749627199  7.531310966742  8.000000036167
9
dataset=mtp_neb_basin_invalid_collapse source_id=basin_mtp_neb_03 frame=3 qPT_A=-0.2600832692 R_OO_A=2.3879100893 min_pair_A=1.0902170719 max_span_A=4.3582852778 source=${PROJECT_ROOT}/09_strict_comparison/versions/v031_secondary_mtp_neb/attempt_20260722T220236Z/branches/basin/secondary_mtp_neb_final_path_v031.cfg
O   6.541348179996  7.967345488837  7.999999409265
H   7.265279308507  7.149767342726  7.999999292163
C   7.291331113943  9.038828163429  7.999999894604
H   6.750739424185  9.997597399452  8.000000372398
C   8.674866092308  8.950884529508  8.000000048752
H   9.306003505757  9.839838312982  8.000000665576
C   9.232638661307  7.650048063017  7.999999862302
O   8.503265736636  6.606098231507  7.999999598896
H   10.332829611665  7.515001892461  7.999999950039
9
dataset=mtp_neb_basin_invalid_collapse source_id=basin_mtp_neb_04 frame=4 qPT_A=-0.0152815563 R_OO_A=2.1591568865 min_pair_A=1.0971217104 max_span_A=4.4315331083 source=${PROJECT_ROOT}/09_strict_comparison/versions/v031_secondary_mtp_neb/attempt_20260722T220236Z/branches/basin/secondary_mtp_neb_final_path_v031.cfg
O   6.627534932697  7.910540840697  8.000000054342
H   7.369702048407  7.102540828460  7.999999831666
C   7.293886465282  9.021658347910  8.000000096785
H   6.690751038689  9.977298376693  8.000000423584
C   8.689505510443  8.966461143569  7.999999807797
H   9.334675320168  9.878899620820  7.999999948303
C   9.213668081961  7.670029295656  7.999999773434
O   8.394306106265  6.669380866879  7.999999787074
H   10.318158028774  7.431634569716  7.999999884316
9
dataset=mtp_neb_basin_invalid_collapse source_id=basin_mtp_neb_05 frame=5 qPT_A=-0.0000568814 R_OO_A=1.7985316061 min_pair_A=0.9519427450 max_span_A=4.8636322171 source=${PROJECT_ROOT}/09_strict_comparison/versions/v031_secondary_mtp_neb/attempt_20260722T220236Z/branches/basin/secondary_mtp_neb_final_path_v031.cfg
O   6.809301591944  7.874288452983  7.999999970544
H   7.362676613448  7.099710454820  7.999999499244
C   7.250057333259  8.985963222837  8.000000307285
H   6.314016138335  9.826463394927  8.000000781065
C   8.633232509229  8.894468885156  8.000000003323
H   9.839219888344  10.589808609698  8.000000924975
C   9.178642990393  7.620945626381  7.999999385850
O   8.277118446089  6.834947497871  7.999999368771
H   10.286312454249  7.020081325122  7.999998956887
9
dataset=mtp_neb_basin_invalid_collapse source_id=basin_mtp_neb_06 frame=6 qPT_A=0.0152680173 R_OO_A=2.1588844239 min_pair_A=1.0969965054 max_span_A=4.4317019251 source=${PROJECT_ROOT}/09_strict_comparison/versions/v031_secondary_mtp_neb/attempt_20260722T220236Z/branches/basin/secondary_mtp_neb_final_path_v031.cfg
O   6.614056442503  7.929581896724  8.000000195837
H   7.363012356415  7.107269664339  8.000000357585
C   7.285394801127  9.035005504588  8.000000395425
H   6.693327755346  9.997452936956  8.000001177216
C   8.682337136387  8.971561246889  7.999999784824
H   9.328483779146  9.883377293157  7.999999424732
C   9.198217413446  7.673611246815  7.999999559271
O   8.371645340041  6.675921965478  8.000000284208
H   10.300001641262  7.422208204275  7.999998820919
9
dataset=mtp_neb_basin_invalid_collapse source_id=basin_mtp_neb_07 frame=7 qPT_A=0.2599406086 R_OO_A=2.3878398469 min_pair_A=1.0902195227 max_span_A=4.3582934192 source=${PROJECT_ROOT}/09_strict_comparison/versions/v031_secondary_mtp_neb/attempt_20260722T220236Z/branches/basin/secondary_mtp_neb_final_path_v031.cfg
O   6.518061011155  8.011377627001  8.000000797116
H   7.442200517382  7.024535162930  8.000000883420
C   7.260231348775  9.046280705939  8.000000447943
H   6.767174975865  10.039033788628  8.000001589418
C   8.672490874993  8.952565677115  7.999999268249
H   9.301158804548  9.843270590081  7.999999217334
C   9.215253597213  7.676898351847  7.999999420747
O   8.453929632130  6.613453517116  8.000001030239
H   10.299195137664  7.485691840392  7.999998132397
9
dataset=mtp_neb_basin_invalid_collapse source_id=basin_mtp_neb_08 frame=8 qPT_A=0.3911458061 R_OO_A=2.4535546793 min_pair_A=1.0630751011 max_span_A=4.3502453138 source=${PROJECT_ROOT}/09_strict_comparison/versions/v031_secondary_mtp_neb/attempt_20260722T220236Z/branches/basin/secondary_mtp_neb_final_path_v031.cfg
O   6.494084062664  8.033581563119  8.000002185896
H   7.487522948496  6.971584563543  7.999999678140
C   7.251106092845  9.047556629600  8.000001730052
H   6.780626591146  10.050075936816  8.000002407184
C   8.670465207515  8.944958761163  8.000000224248
H   9.297474251689  9.833808295764  8.000000117901
C   9.223395638904  7.679877488205  7.999998667251
O   8.481676773838  6.595038627150  7.999998191244
H   10.304624581727  7.499375552171  7.999997748235
9
dataset=mtp_neb_basin_invalid_collapse source_id=basin_mtp_neb_09 frame=9 qPT_A=0.4837794558 R_OO_A=2.4990582629 min_pair_A=1.0443962267 max_span_A=4.3447194643 source=${PROJECT_ROOT}/09_strict_comparison/versions/v031_secondary_mtp_neb/attempt_20260722T220236Z/branches/basin/secondary_mtp_neb_final_path_v031.cfg
O   6.489460626700  8.034659226300  8.000000356200
H   7.531179954000  6.916561842500  7.999999927400
C   7.249092923700  9.041063800500  8.000000268300
H   6.790343354600  10.050050088100  8.000000063900
C   8.672230155800  8.936048483400  8.000000196100
H   9.298058446400  9.825032480500  8.000000152000
C   9.237544048200  7.680389349100  7.999999857200
O   8.518343162000  6.575574630000  7.999999421500
H   10.319896530900  7.516506798700  7.999999552700
