9
dataset=mtp_neb_targeted_high_grade source_id=targeted_mtp_neb_01 frame=1 qPT_A=-0.4838914049 R_OO_A=2.4992404105 min_pair_A=1.0444127012 max_span_A=4.3447863792 source=${PROJECT_ROOT}/09_strict_comparison/versions/v031_secondary_mtp_neb/attempt_20260722T220236Z/branches/targeted/secondary_mtp_neb_final_path_v031.cfg
O   6.484230476900  8.015465648100  8.000000393700
H   7.134008124200  7.197794015100  7.999999863400
C   7.287185379500  9.061029076100  8.000000260500
H   6.772977071800  10.027477542900  8.000000159900
C   8.659330640300  8.945112066500  8.000000123700
H   9.289592437400  9.830948711200  8.000000275300
C   9.231494724200  7.637764631300  7.999999865900
O   8.534858595000  6.586785505200  7.999999389400
H   10.335671267800  7.540636424800  8.000000162400
9
dataset=mtp_neb_targeted_high_grade source_id=targeted_mtp_neb_02 frame=2 qPT_A=-0.3885041414 R_OO_A=2.4576951467 min_pair_A=1.0664242163 max_span_A=4.3502489630 source=${PROJECT_ROOT}/09_strict_comparison/versions/v031_secondary_mtp_neb/attempt_20260722T220236Z/branches/targeted/secondary_mtp_neb_final_path_v031.cfg
O   6.511941727418  7.988792499669  7.999999618444
H   7.200675805427  7.174602117214  7.999999216331
C   7.291596334720  9.046570744290  8.000000205650
H   6.760849765312  10.003939901780  8.000000616946
C   8.668885640736  8.946355454076  8.000000271353
H   9.295829384959  9.833657406081  8.000000690009
C   9.238621068223  7.641446570100  7.999999683714
O   8.533409736130  6.590961135055  7.999998847777
H   10.338248762867  7.528685883994  8.000000054209
9
dataset=mtp_neb_targeted_high_grade source_id=targeted_mtp_neb_03 frame=3 qPT_A=-0.2544143195 R_OO_A=2.4192399091 min_pair_A=1.0852225050 max_span_A=4.3532949429 source=${PROJECT_ROOT}/09_strict_comparison/versions/v031_secondary_mtp_neb/attempt_20260722T220236Z/branches/targeted/secondary_mtp_neb_final_path_v031.cfg
O   6.528503645804  7.976933606441  7.999999383738
H   7.269028763863  7.150422437521  7.999999563058
C   7.288693913451  9.041241774988  7.999999951004
H   6.755153756246  9.997777570427  8.000000436556
C   8.673018389038  8.948668545361  8.000000028600
H   9.298491804274  9.835511762753  8.000000215421
C   9.237258033571  7.648147270352  7.999999911800
O   8.516365182100  6.598119532654  7.999999580072
H   10.330278740388  7.513897901942  8.000000018276
9
dataset=mtp_neb_targeted_high_grade source_id=targeted_mtp_neb_04 frame=4 qPT_A=-0.1250470923 R_OO_A=2.3992047520 min_pair_A=1.0847490939 max_span_A=4.3552735119 source=${PROJECT_ROOT}/09_strict_comparison/versions/v031_secondary_mtp_neb/attempt_20260722T220236Z/branches/targeted/secondary_mtp_neb_final_path_v031.cfg
O   6.531030327458  7.980209118552  8.000000014784
H   7.320442350318  7.127425756950  7.999999884248
C   7.281833504297  9.041921838558  8.000000159172
H   6.753944657393  10.002856837727  8.000000750054
C   8.673592184242  8.950288119619  7.999999742822
H   9.299445345036  9.836283840694  7.999999953962
C   9.231690883808  7.655498393689  7.999999786360
O   8.496392634688  6.604151545856  7.999999803292
H   10.320081303233  7.502641489634  7.999999799459
9
dataset=mtp_neb_targeted_high_grade source_id=targeted_mtp_neb_05 frame=5 qPT_A=-0.0001319645 R_OO_A=2.3924957585 min_pair_A=1.0845703280 max_span_A=4.3558115621 source=${PROJECT_ROOT}/09_strict_comparison/versions/v031_secondary_mtp_neb/attempt_20260722T220236Z/branches/targeted/secondary_mtp_neb_final_path_v031.cfg
O   6.527234446778  7.989943921116  8.000000064829
H   7.363833870200  7.101443479703  7.999999468410
C   7.274061964724  9.044324650547  8.000000369747
H   6.755581455251  10.011571203566  8.000001253335
C   8.673305511797  8.951193702086  7.999999909988
H   9.299924620572  9.836428862278  8.000000125803
C   9.226202135023  7.662431407505  7.999999569396
O   8.479991291103  6.607635467417  7.999999127047
H   10.310788694404  7.494907568588  7.999999804765
9
dataset=mtp_neb_targeted_high_grade source_id=targeted_mtp_neb_06 frame=6 qPT_A=0.1247066658 R_OO_A=2.3991692722 min_pair_A=1.0847484117 max_span_A=4.3552767065 source=${PROJECT_ROOT}/09_strict_comparison/versions/v031_secondary_mtp_neb/attempt_20260722T220236Z/branches/targeted/secondary_mtp_neb_final_path_v031.cfg
O   6.518506088961  8.004245811236  8.000000415568
H   7.402734818127  7.069194807308  8.000000138871
C   7.265700655692  9.047200693087  8.000000277494
H   6.759777724418  10.022901460719  8.000000753550
C   8.672354246820  8.951167348957  7.999999651418
H   9.299946691366  9.835931068936  7.999999884843
C   9.221346201750  7.668960351054  7.999999736210
O   8.469527376510  6.607990414829  8.000000057747
H   10.303107009917  7.490461379488  7.999999777797
9
dataset=mtp_neb_targeted_high_grade source_id=targeted_mtp_neb_07 frame=7 qPT_A=0.2541816600 R_OO_A=2.4191908197 min_pair_A=1.0852219426 max_span_A=4.3532977602 source=${PROJECT_ROOT}/09_strict_comparison/versions/v031_secondary_mtp_neb/attempt_20260722T220236Z/branches/targeted/secondary_mtp_neb_final_path_v031.cfg
O   6.506169313638  8.021086046650  8.000001173593
H   7.441540607391  7.028328692101  8.000000829233
C   7.256904580047  9.050006150403  8.000000148287
H   6.767002647852  10.036261946664  8.000000314449
C   8.671014879968  8.950084923834  7.999999260569
H   9.299530138923  9.834774267051  7.999999164364
C   9.218414065882  7.675209385067  7.999999727557
O   8.467249227653  6.604523378466  8.000000651616
H   10.297901553961  7.489900954296  7.999999500669
9
dataset=mtp_neb_targeted_high_grade source_id=targeted_mtp_neb_08 frame=8 qPT_A=0.3884101553 R_OO_A=2.4576642557 min_pair_A=1.0664516004 max_span_A=4.3502486728 source=${PROJECT_ROOT}/09_strict_comparison/versions/v031_secondary_mtp_neb/attempt_20260722T220236Z/branches/targeted/secondary_mtp_neb_final_path_v031.cfg
O   6.493730051967  8.034786798131  8.000002336867
H   7.487100454488  6.971848431270  7.999999889097
C   7.250112007757  9.049054879854  8.000001637375
H   6.778283822872  10.048687631687  8.000001639264
C   8.670193883417  8.945413292025  8.000000249377
H   9.298672598786  9.831630551615  7.999999867108
C   9.222462920245  7.679721430023  7.999998797366
O   8.483930624747  6.592838368440  7.999998022953
H   10.301806869954  7.497325475445  7.999998296329
9
dataset=mtp_neb_targeted_high_grade source_id=targeted_mtp_neb_09 frame=9 qPT_A=0.4837794558 R_OO_A=2.4990582629 min_pair_A=1.0443962267 max_span_A=4.3447194643 source=${PROJECT_ROOT}/09_strict_comparison/versions/v031_secondary_mtp_neb/attempt_20260722T220236Z/branches/targeted/secondary_mtp_neb_final_path_v031.cfg
O   6.489460626700  8.034659226300  8.000000356200
H   7.531179954000  6.916561842500  7.999999927400
C   7.249092923700  9.041063800500  8.000000268300
H   6.790343354600  10.050050088100  8.000000063900
C   8.672230155800  8.936048483400  8.000000196100
H   9.298058446400  9.825032480500  8.000000152000
C   9.237544048200  7.680389349100  7.999999857200
O   8.518343162000  6.575574630000  7.999999421500
H   10.319896530900  7.516506798700  7.999999552700
