
     Program PWSCF v.7.5 starts on 15Sep2026 at  8:45:42 

     This program is part of the open-source Quantum ESPRESSO suite
     for quantum simulation of materials; please cite
         "P. Giannozzi et al., J. Phys.:Condens. Matter 21 395502 (2009);
         "P. Giannozzi et al., J. Phys.:Condens. Matter 29 465901 (2017);
         "P. Giannozzi et al., J. Chem. Phys. 152 154105 (2020);
          URL http://www.quantum-espresso.org", 
     in publications or presentations arising from this work. More details at
     http://www.quantum-espresso.org/quote

     Parallel version (MPI & OpenMP), running on       1 processor cores
     Number of MPI processes:                 1
     Threads/MPI process:                     1

     MPI processes distributed on     1 nodes
     11736 MiB available memory on the printing compute node when the environment starts

     Reading input from pw.in

     Current dimensions of program PWSCF are:
     Max number of different atomic species (ntypx) = 10
     Max number of k-points (npk) =  40000
     Max angular momentum in pseudopotentials (lmaxx) =  4
     file C.pbe-n-kjpaw_psl.1.0.0.UPF: wavefunction(s)  2S 2P renormalized
     file H.pbe-kjpaw_psl.1.0.0.UPF: wavefunction(s)  1S renormalized
     file O.pbe-n-kjpaw_psl.1.0.0.UPF: wavefunction(s)  2S 2P renormalized

     IMPORTANT: XC functional enforced from input :
     Exchange-correlation= PBE
                           (   1   4   3   4   0   0   0)
     Any further DFT definition will be discarded
     Please, verify this is what you really want


     gamma-point specific algorithms are used

     Subspace diagonalization in iterative solution of the eigenvalue problem:
     a serial algorithm will be used


     G-vector sticks info
     --------------------
     sticks:   dense  smooth     PW     G-vecs:    dense   smooth      PW
     Sum       69849   23281   5813             13885619  2672421  333715

     Using Slab Decomposition



     bravais-lattice index     =            0
     lattice parameter (alat)  =      30.2356  a.u.
     unit-cell volume          =   27641.1781 (a.u.)^3
     number of atoms/cell      =            9
     number of atomic types    =            3
     number of electrons       =        28.00
     number of Kohn-Sham states=           14
     kinetic-energy cutoff     =      80.0000  Ry
     charge density cutoff     =     960.0000  Ry
     scf convergence threshold =      1.0E-10
     mixing beta               =       0.3000
     number of iterations used =            8  plain     mixing
     Exchange-correlation= PBE
                           (   1   4   3   4   0   0   0)

     celldm(1)=  30.235618  celldm(2)=   0.000000  celldm(3)=   0.000000
     celldm(4)=   0.000000  celldm(5)=   0.000000  celldm(6)=   0.000000

     crystal axes: (cart. coord. in units of alat)
               a(1) = (   1.000000   0.000000   0.000000 )  
               a(2) = (   0.000000   1.000000   0.000000 )  
               a(3) = (   0.000000   0.000000   1.000000 )  

     reciprocal axes: (cart. coord. in units 2 pi/alat)
               b(1) = (  1.000000  0.000000  0.000000 )  
               b(2) = (  0.000000  1.000000  0.000000 )  
               b(3) = (  0.000000  0.000000  1.000000 )  


     PseudoPot. # 1 for C  read from file:
     ./PSEUDO/C.pbe-n-kjpaw_psl.1.0.0.UPF
     MD5 check sum: 5f16ad9a65e90284d1d834d4ab3b0f7d
     Pseudo is Projector augmented-wave + core cor, Zval =  4.0
     Generated using &quot;atomic&quot; code by A. Dal Corso  v.6.3
     Shape of augmentation charge: PSQ
     Using radial grid of 1073 points,  4 beta functions with: 
                l(1) =   0
                l(2) =   0
                l(3) =   1
                l(4) =   1
     Q(r) pseudized with 0 coefficients 


     PseudoPot. # 2 for H  read from file:
     ./PSEUDO/H.pbe-kjpaw_psl.1.0.0.UPF
     MD5 check sum: d81a744832360e4a8af0b0b5b123bc2a
     Pseudo is Projector augmented-wave, Zval =  1.0
     Generated using &quot;atomic&quot; code by A. Dal Corso  v.6.3MaX
     Shape of augmentation charge: PSQ
     Using radial grid of  929 points,  2 beta functions with: 
                l(1) =   0
                l(2) =   0
     Q(r) pseudized with 0 coefficients 


     PseudoPot. # 3 for O  read from file:
     ./PSEUDO/O.pbe-n-kjpaw_psl.1.0.0.UPF
     MD5 check sum: e99d9cef9b487d1ca56f5b95ecd0fd7a
     Pseudo is Projector augmented-wave + core cor, Zval =  6.0
     Generated using &quot;atomic&quot; code by A. Dal Corso  v.6.3
     Shape of augmentation charge: PSQ
     Using radial grid of 1095 points,  4 beta functions with: 
                l(1) =   0
                l(2) =   0
                l(3) =   1
                l(4) =   1
     Q(r) pseudized with 0 coefficients 


     atomic species   valence    mass     pseudopotential
     C                 4.00    12.01100     C ( 1.00)
     H                 1.00     1.00800     H ( 1.00)
     O                 6.00    15.99900     O ( 1.00)

     No symmetry found


                                    s                        frac. trans.

      isym =  1     identity                                     

 cryst.   s( 1) = (     1          0          0      )
                  (     0          1          0      )
                  (     0          0          1      )

 cart.    s( 1) = (  1.0000000  0.0000000  0.0000000 )
                  (  0.0000000  1.0000000  0.0000000 )
                  (  0.0000000  0.0000000  1.0000000 )


   Cartesian axes

     site n.     atom                  positions (alat units)
         1        O      tau(   1) = (   0.4068236   0.5002042   0.4998971  )
         2        H      tau(   2) = (   0.4488954   0.4498977   0.4992039  )
         3        C      tau(   3) = (   0.4556123   0.5667657   0.5001132  )
         4        H      tau(   4) = (   0.4243398   0.6253345   0.4915744  )
         5        C      tau(   5) = (   0.5413027   0.5595927   0.5014585  )
         6        H      tau(   6) = (   0.5796315   0.6150106   0.5030426  )
         7        C      tau(   7) = (   0.5753023   0.4777637   0.4987389  )
         8        O      tau(   8) = (   0.5328137   0.4115270   0.5006843  )
         9        H      tau(   9) = (   0.6446950   0.4700778   0.4932498  )

   Crystallographic axes

     site n.     atom                  positions (cryst. coord.)
         1        O      tau(   1) = (  0.4068236  0.5002042  0.4998971  )
         2        H      tau(   2) = (  0.4488954  0.4498977  0.4992039  )
         3        C      tau(   3) = (  0.4556123  0.5667657  0.5001132  )
         4        H      tau(   4) = (  0.4243398  0.6253345  0.4915744  )
         5        C      tau(   5) = (  0.5413027  0.5595927  0.5014585  )
         6        H      tau(   6) = (  0.5796315  0.6150106  0.5030426  )
         7        C      tau(   7) = (  0.5753023  0.4777637  0.4987389  )
         8        O      tau(   8) = (  0.5328137  0.4115270  0.5006843  )
         9        H      tau(   9) = (  0.6446950  0.4700778  0.4932498  )

     number of k points=     1
                       cart. coord. in units 2pi/alat
        k(    1) = (   0.0000000   0.0000000   0.0000000), wk =   2.0000000

                       cryst. coord.
        k(    1) = (   0.0000000   0.0000000   0.0000000), wk =   2.0000000

     Dense  grid:  6942810 G-vectors     FFT dimensions: ( 300, 300, 300)

     Smooth grid:  1336211 G-vectors     FFT dimensions: ( 180, 180, 180)

     Dynamical RAM for                 wfc:      35.67 MB

     Dynamical RAM for     wfc (w. buffer):      35.67 MB

     Dynamical RAM for           str. fact:     317.82 MB

     Dynamical RAM for           local pot:       0.00 MB

     Dynamical RAM for          nlocal pot:     122.31 MB

     Dynamical RAM for                qrad:       2.13 MB

     Dynamical RAM for          rho,v,vnew:     935.80 MB

     Dynamical RAM for               rhoin:     311.93 MB

     Dynamical RAM for            rho*nmix:    1695.02 MB

     Dynamical RAM for           G-vectors:     407.47 MB

     Dynamical RAM for          h,s,v(r/c):       0.02 MB

     Dynamical RAM for          <psi|beta>:       0.01 MB

     Dynamical RAM for                 psi:      71.35 MB

     Dynamical RAM for                hpsi:      71.35 MB

     Dynamical RAM for                spsi:      71.35 MB

     Dynamical RAM for      wfcinit/wfcrot:      71.35 MB

     Dynamical RAM for           addusdens:    4979.13 MB

     Dynamical RAM for          addusforce:    5667.73 MB

     Estimated static dynamical RAM per process >       3.50 GB

     Estimated max dynamical RAM per process >      10.69 GB

     Initial potential from superposition of free atoms

     starting charge      27.9998, renormalised to      28.0000

     negative rho (up, down):  1.482E-04 0.000E+00
     Starting wfcs are   24 randomized atomic wfcs
     Checking if some PAW data can be deallocated... 

     total cpu time spent up to now is       38.9 secs

     Self-consistent Calculation

     iteration #  1     ecut=    80.00 Ry     beta= 0.30
     Davidson diagonalization with overlap

---- Real-time Memory Report at c_bands before calling an iterative solver
          6819 MiB given to the printing process from OS
          -778 MiB allocation reported by mallinfo(arena+hblkhd)
          9257 MiB available memory on the node where the printing process lives
------------------
     ethr =  1.00E-02,  avg # of iterations =  2.0

     negative rho (up, down):  1.037E-05 0.000E+00

     total cpu time spent up to now is       75.5 secs

     total energy              =    -143.20065347 Ry
     estimated scf accuracy    <       0.78044647 Ry

     iteration #  2     ecut=    80.00 Ry     beta= 0.30
     Davidson diagonalization with overlap

---- Real-time Memory Report at c_bands before calling an iterative solver
          7554 MiB given to the printing process from OS
          -373 MiB allocation reported by mallinfo(arena+hblkhd)
          8852 MiB available memory on the node where the printing process lives
------------------
     ethr =  2.79E-03,  avg # of iterations =  2.0

     negative rho (up, down):  2.268E-04 0.000E+00

     total cpu time spent up to now is      111.1 secs

     total energy              =    -143.15661223 Ry
     estimated scf accuracy    <       0.32893765 Ry

     iteration #  3     ecut=    80.00 Ry     beta= 0.30
     Davidson diagonalization with overlap

---- Real-time Memory Report at c_bands before calling an iterative solver
          7595 MiB given to the printing process from OS
          -332 MiB allocation reported by mallinfo(arena+hblkhd)
          8810 MiB available memory on the node where the printing process lives
------------------
     ethr =  1.17E-03,  avg # of iterations =  5.0

     negative rho (up, down):  4.950E-05 0.000E+00

     total cpu time spent up to now is      147.4 secs

     total energy              =    -143.27494089 Ry
     estimated scf accuracy    <       0.06611964 Ry

     iteration #  4     ecut=    80.00 Ry     beta= 0.30
     Davidson diagonalization with overlap

---- Real-time Memory Report at c_bands before calling an iterative solver
          7636 MiB given to the printing process from OS
          -291 MiB allocation reported by mallinfo(arena+hblkhd)
          8764 MiB available memory on the node where the printing process lives
------------------
     ethr =  2.36E-04,  avg # of iterations =  7.0

     negative rho (up, down):  6.108E-05 0.000E+00

     total cpu time spent up to now is      184.0 secs

     total energy              =    -143.31586459 Ry
     estimated scf accuracy    <       0.07846795 Ry

     iteration #  5     ecut=    80.00 Ry     beta= 0.30
     Davidson diagonalization with overlap

---- Real-time Memory Report at c_bands before calling an iterative solver
          7677 MiB given to the printing process from OS
          -251 MiB allocation reported by mallinfo(arena+hblkhd)
          8729 MiB available memory on the node where the printing process lives
------------------
     ethr =  2.36E-04,  avg # of iterations =  1.0

     negative rho (up, down):  1.401E-04 0.000E+00

     total cpu time spent up to now is      216.7 secs

     total energy              =    -143.29945154 Ry
     estimated scf accuracy    <       0.07134062 Ry

     iteration #  6     ecut=    80.00 Ry     beta= 0.30
     Davidson diagonalization with overlap

---- Real-time Memory Report at c_bands before calling an iterative solver
          7717 MiB given to the printing process from OS
          -210 MiB allocation reported by mallinfo(arena+hblkhd)
          8686 MiB available memory on the node where the printing process lives
------------------
     ethr =  2.36E-04,  avg # of iterations =  1.0

     negative rho (up, down):  2.168E-04 0.000E+00

     total cpu time spent up to now is      248.4 secs

     total energy              =    -143.28621150 Ry
     estimated scf accuracy    <       0.03903805 Ry

     iteration #  7     ecut=    80.00 Ry     beta= 0.30
     Davidson diagonalization with overlap

---- Real-time Memory Report at c_bands before calling an iterative solver
          7758 MiB given to the printing process from OS
          -169 MiB allocation reported by mallinfo(arena+hblkhd)
          8643 MiB available memory on the node where the printing process lives
------------------
     ethr =  1.39E-04,  avg # of iterations =  5.0

     negative rho (up, down):  1.883E-04 0.000E+00

     total cpu time spent up to now is      283.8 secs

     total energy              =    -143.30257469 Ry
     estimated scf accuracy    <       0.02100112 Ry

     iteration #  8     ecut=    80.00 Ry     beta= 0.30
     Davidson diagonalization with overlap

---- Real-time Memory Report at c_bands before calling an iterative solver
          7799 MiB given to the printing process from OS
          -128 MiB allocation reported by mallinfo(arena+hblkhd)
          8601 MiB available memory on the node where the printing process lives
------------------
     ethr =  7.50E-05,  avg # of iterations =  2.0

     negative rho (up, down):  1.937E-04 0.000E+00

     total cpu time spent up to now is      317.0 secs

     total energy              =    -143.30811589 Ry
     estimated scf accuracy    <       0.02337211 Ry

     iteration #  9     ecut=    80.00 Ry     beta= 0.30
     Davidson diagonalization with overlap

---- Real-time Memory Report at c_bands before calling an iterative solver
          7840 MiB given to the printing process from OS
           -87 MiB allocation reported by mallinfo(arena+hblkhd)
          8561 MiB available memory on the node where the printing process lives
------------------
     ethr =  7.50E-05,  avg # of iterations =  2.0

     negative rho (up, down):  1.417E-04 0.000E+00

     total cpu time spent up to now is      349.4 secs

     total energy              =    -143.30078447 Ry
     estimated scf accuracy    <       0.03186860 Ry

     iteration # 10     ecut=    80.00 Ry     beta= 0.30
     Davidson diagonalization with overlap

---- Real-time Memory Report at c_bands before calling an iterative solver
          7881 MiB given to the printing process from OS
           -47 MiB allocation reported by mallinfo(arena+hblkhd)
          8523 MiB available memory on the node where the printing process lives
------------------
     ethr =  7.50E-05,  avg # of iterations =  2.0

     negative rho (up, down):  1.159E-04 0.000E+00

     total cpu time spent up to now is      383.2 secs

     total energy              =    -143.28934428 Ry
     estimated scf accuracy    <       0.01785253 Ry

     iteration # 11     ecut=    80.00 Ry     beta= 0.30
     Davidson diagonalization with overlap

---- Real-time Memory Report at c_bands before calling an iterative solver
          7881 MiB given to the printing process from OS
           -47 MiB allocation reported by mallinfo(arena+hblkhd)
          8523 MiB available memory on the node where the printing process lives
------------------
     ethr =  6.38E-05,  avg # of iterations =  8.0

     negative rho (up, down):  1.154E-04 0.000E+00

     total cpu time spent up to now is      420.1 secs

     total energy              =    -143.29779588 Ry
     estimated scf accuracy    <       0.02770830 Ry

     iteration # 12     ecut=    80.00 Ry     beta= 0.30
     Davidson diagonalization with overlap

---- Real-time Memory Report at c_bands before calling an iterative solver
          7881 MiB given to the printing process from OS
           -47 MiB allocation reported by mallinfo(arena+hblkhd)
          8524 MiB available memory on the node where the printing process lives
------------------
     ethr =  6.38E-05,  avg # of iterations =  1.0

     negative rho (up, down):  1.134E-04 0.000E+00

     total cpu time spent up to now is      454.2 secs

     total energy              =    -143.29120837 Ry
     estimated scf accuracy    <       0.01559469 Ry

     iteration # 13     ecut=    80.00 Ry     beta= 0.30
     Davidson diagonalization with overlap

---- Real-time Memory Report at c_bands before calling an iterative solver
          7881 MiB given to the printing process from OS
           -47 MiB allocation reported by mallinfo(arena+hblkhd)
          8515 MiB available memory on the node where the printing process lives
------------------
     ethr =  5.57E-05,  avg # of iterations =  8.0

     negative rho (up, down):  1.116E-04 0.000E+00

     total cpu time spent up to now is      489.1 secs

     total energy              =    -143.29766159 Ry
     estimated scf accuracy    <       0.00107963 Ry

     iteration # 14     ecut=    80.00 Ry     beta= 0.30
     Davidson diagonalization with overlap

---- Real-time Memory Report at c_bands before calling an iterative solver
          7881 MiB given to the printing process from OS
           -47 MiB allocation reported by mallinfo(arena+hblkhd)
          8527 MiB available memory on the node where the printing process lives
------------------
     ethr =  3.86E-06,  avg # of iterations =  7.0

     negative rho (up, down):  1.101E-04 0.000E+00

     total cpu time spent up to now is      524.0 secs

     total energy              =    -143.29816705 Ry
     estimated scf accuracy    <       0.00136909 Ry

     iteration # 15     ecut=    80.00 Ry     beta= 0.30
     Davidson diagonalization with overlap

---- Real-time Memory Report at c_bands before calling an iterative solver
          7881 MiB given to the printing process from OS
           -47 MiB allocation reported by mallinfo(arena+hblkhd)
          8525 MiB available memory on the node where the printing process lives
------------------
     ethr =  3.86E-06,  avg # of iterations =  2.0

     negative rho (up, down):  1.131E-04 0.000E+00

     total cpu time spent up to now is      557.2 secs

     total energy              =    -143.29775105 Ry
     estimated scf accuracy    <       0.00125144 Ry

     iteration # 16     ecut=    80.00 Ry     beta= 0.30
     Davidson diagonalization with overlap

---- Real-time Memory Report at c_bands before calling an iterative solver
          7881 MiB given to the printing process from OS
           -47 MiB allocation reported by mallinfo(arena+hblkhd)
          8525 MiB available memory on the node where the printing process lives
------------------
     ethr =  3.86E-06,  avg # of iterations =  7.0

     negative rho (up, down):  1.178E-04 0.000E+00

     total cpu time spent up to now is      591.1 secs

     total energy              =    -143.29810197 Ry
     estimated scf accuracy    <       0.00019292 Ry

     iteration # 17     ecut=    80.00 Ry     beta= 0.30
     Davidson diagonalization with overlap

---- Real-time Memory Report at c_bands before calling an iterative solver
          7881 MiB given to the printing process from OS
           -47 MiB allocation reported by mallinfo(arena+hblkhd)
          8525 MiB available memory on the node where the printing process lives
------------------
     ethr =  6.89E-07,  avg # of iterations =  7.0

     negative rho (up, down):  1.183E-04 0.000E+00

     total cpu time spent up to now is      626.3 secs

     total energy              =    -143.29829230 Ry
     estimated scf accuracy    <       0.00094716 Ry

     iteration # 18     ecut=    80.00 Ry     beta= 0.30
     Davidson diagonalization with overlap

---- Real-time Memory Report at c_bands before calling an iterative solver
          7881 MiB given to the printing process from OS
           -47 MiB allocation reported by mallinfo(arena+hblkhd)
          8525 MiB available memory on the node where the printing process lives
------------------
     ethr =  6.89E-07,  avg # of iterations =  5.0

     negative rho (up, down):  1.184E-04 0.000E+00

     total cpu time spent up to now is      660.5 secs

     total energy              =    -143.29796922 Ry
     estimated scf accuracy    <       0.00132563 Ry

     iteration # 19     ecut=    80.00 Ry     beta= 0.30
     Davidson diagonalization with overlap

---- Real-time Memory Report at c_bands before calling an iterative solver
          7881 MiB given to the printing process from OS
           -47 MiB allocation reported by mallinfo(arena+hblkhd)
          8525 MiB available memory on the node where the printing process lives
------------------
     ethr =  6.89E-07,  avg # of iterations =  2.0

     negative rho (up, down):  1.189E-04 0.000E+00

     total cpu time spent up to now is      693.8 secs

     total energy              =    -143.29784866 Ry
     estimated scf accuracy    <       0.00074303 Ry

     iteration # 20     ecut=    80.00 Ry     beta= 0.30
     Davidson diagonalization with overlap

---- Real-time Memory Report at c_bands before calling an iterative solver
          7881 MiB given to the printing process from OS
           -47 MiB allocation reported by mallinfo(arena+hblkhd)
          8525 MiB available memory on the node where the printing process lives
------------------
     ethr =  6.89E-07,  avg # of iterations =  8.0

     negative rho (up, down):  1.190E-04 0.000E+00

     total cpu time spent up to now is      729.6 secs

     total energy              =    -143.29794204 Ry
     estimated scf accuracy    <       0.00014766 Ry

     iteration # 21     ecut=    80.00 Ry     beta= 0.30
     Davidson diagonalization with overlap

---- Real-time Memory Report at c_bands before calling an iterative solver
          7881 MiB given to the printing process from OS
           -47 MiB allocation reported by mallinfo(arena+hblkhd)
          8524 MiB available memory on the node where the printing process lives
------------------
     ethr =  5.27E-07,  avg # of iterations =  2.0

     negative rho (up, down):  1.211E-04 0.000E+00

     total cpu time spent up to now is      762.7 secs

     total energy              =    -143.29791365 Ry
     estimated scf accuracy    <       0.00009304 Ry

     iteration # 22     ecut=    80.00 Ry     beta= 0.30
     Davidson diagonalization with overlap

---- Real-time Memory Report at c_bands before calling an iterative solver
          7881 MiB given to the printing process from OS
           -47 MiB allocation reported by mallinfo(arena+hblkhd)
          8522 MiB available memory on the node where the printing process lives
------------------
     ethr =  3.32E-07,  avg # of iterations =  6.0

     negative rho (up, down):  1.187E-04 0.000E+00

     total cpu time spent up to now is      797.0 secs

     total energy              =    -143.29793428 Ry
     estimated scf accuracy    <       0.00004711 Ry

     iteration # 23     ecut=    80.00 Ry     beta= 0.30
     Davidson diagonalization with overlap

---- Real-time Memory Report at c_bands before calling an iterative solver
          7881 MiB given to the printing process from OS
           -47 MiB allocation reported by mallinfo(arena+hblkhd)
          8524 MiB available memory on the node where the printing process lives
------------------
     ethr =  1.68E-07,  avg # of iterations =  6.0

     negative rho (up, down):  1.155E-04 0.000E+00

     total cpu time spent up to now is      831.1 secs

     total energy              =    -143.29794371 Ry
     estimated scf accuracy    <       0.00001113 Ry

     iteration # 24     ecut=    80.00 Ry     beta= 0.30
     Davidson diagonalization with overlap

---- Real-time Memory Report at c_bands before calling an iterative solver
          7881 MiB given to the printing process from OS
           -47 MiB allocation reported by mallinfo(arena+hblkhd)
          8526 MiB available memory on the node where the printing process lives
------------------
     ethr =  3.97E-08,  avg # of iterations =  3.0

     negative rho (up, down):  1.148E-04 0.000E+00

     total cpu time spent up to now is      865.4 secs

     total energy              =    -143.29794626 Ry
     estimated scf accuracy    <       0.00000222 Ry

     iteration # 25     ecut=    80.00 Ry     beta= 0.30
     Davidson diagonalization with overlap

---- Real-time Memory Report at c_bands before calling an iterative solver
          7881 MiB given to the printing process from OS
           -47 MiB allocation reported by mallinfo(arena+hblkhd)
          8525 MiB available memory on the node where the printing process lives
------------------
     ethr =  7.92E-09,  avg # of iterations =  9.0

     negative rho (up, down):  1.140E-04 0.000E+00

     total cpu time spent up to now is      902.2 secs

     total energy              =    -143.29794446 Ry
     estimated scf accuracy    <       0.00001125 Ry

     iteration # 26     ecut=    80.00 Ry     beta= 0.30
     Davidson diagonalization with overlap

---- Real-time Memory Report at c_bands before calling an iterative solver
          7881 MiB given to the printing process from OS
           -47 MiB allocation reported by mallinfo(arena+hblkhd)
          8524 MiB available memory on the node where the printing process lives
------------------
     ethr =  7.92E-09,  avg # of iterations =  8.0

     negative rho (up, down):  1.141E-04 0.000E+00

     total cpu time spent up to now is      937.6 secs

     total energy              =    -143.29794611 Ry
     estimated scf accuracy    <       0.00000072 Ry

     iteration # 27     ecut=    80.00 Ry     beta= 0.30
     Davidson diagonalization with overlap

---- Real-time Memory Report at c_bands before calling an iterative solver
          7881 MiB given to the printing process from OS
           -47 MiB allocation reported by mallinfo(arena+hblkhd)
          8522 MiB available memory on the node where the printing process lives
------------------
     ethr =  2.56E-09,  avg # of iterations =  6.0

     negative rho (up, down):  1.142E-04 0.000E+00

     total cpu time spent up to now is      972.4 secs

     total energy              =    -143.29794631 Ry
     estimated scf accuracy    <       0.00000078 Ry

     iteration # 28     ecut=    80.00 Ry     beta= 0.30
     Davidson diagonalization with overlap

---- Real-time Memory Report at c_bands before calling an iterative solver
          7881 MiB given to the printing process from OS
           -47 MiB allocation reported by mallinfo(arena+hblkhd)
          8524 MiB available memory on the node where the printing process lives
------------------
     ethr =  2.56E-09,  avg # of iterations =  2.0

     negative rho (up, down):  1.141E-04 0.000E+00

     total cpu time spent up to now is     1005.1 secs

     total energy              =    -143.29794615 Ry
     estimated scf accuracy    <       0.00000033 Ry

     iteration # 29     ecut=    80.00 Ry     beta= 0.30
     Davidson diagonalization with overlap

---- Real-time Memory Report at c_bands before calling an iterative solver
          7881 MiB given to the printing process from OS
           -47 MiB allocation reported by mallinfo(arena+hblkhd)
          8527 MiB available memory on the node where the printing process lives
------------------
     ethr =  1.17E-09,  avg # of iterations =  6.0

     negative rho (up, down):  1.140E-04 0.000E+00

     total cpu time spent up to now is     1042.2 secs

     total energy              =    -143.29794646 Ry
     estimated scf accuracy    <       0.00000047 Ry

     iteration # 30     ecut=    80.00 Ry     beta= 0.30
     Davidson diagonalization with overlap

---- Real-time Memory Report at c_bands before calling an iterative solver
          7881 MiB given to the printing process from OS
           -47 MiB allocation reported by mallinfo(arena+hblkhd)
          8525 MiB available memory on the node where the printing process lives
------------------
     ethr =  1.17E-09,  avg # of iterations =  1.0

     negative rho (up, down):  1.140E-04 0.000E+00

     total cpu time spent up to now is     1075.3 secs

     total energy              =    -143.29794636 Ry
     estimated scf accuracy    <       0.00000043 Ry

     iteration # 31     ecut=    80.00 Ry     beta= 0.30
     Davidson diagonalization with overlap

---- Real-time Memory Report at c_bands before calling an iterative solver
          7881 MiB given to the printing process from OS
           -47 MiB allocation reported by mallinfo(arena+hblkhd)
          8399 MiB available memory on the node where the printing process lives
------------------
     ethr =  1.17E-09,  avg # of iterations =  1.0

     negative rho (up, down):  1.139E-04 0.000E+00

     total cpu time spent up to now is     1108.1 secs

     total energy              =    -143.29794628 Ry
     estimated scf accuracy    <       0.00000024 Ry

     iteration # 32     ecut=    80.00 Ry     beta= 0.30
     Davidson diagonalization with overlap

---- Real-time Memory Report at c_bands before calling an iterative solver
          7881 MiB given to the printing process from OS
           -47 MiB allocation reported by mallinfo(arena+hblkhd)
          8527 MiB available memory on the node where the printing process lives
------------------
     ethr =  8.68E-10,  avg # of iterations =  6.0

     negative rho (up, down):  1.139E-04 0.000E+00

     total cpu time spent up to now is     1142.6 secs

     total energy              =    -143.29794634 Ry
     estimated scf accuracy    <       0.00000001 Ry

     iteration # 33     ecut=    80.00 Ry     beta= 0.30
     Davidson diagonalization with overlap

---- Real-time Memory Report at c_bands before calling an iterative solver
          7881 MiB given to the printing process from OS
           -47 MiB allocation reported by mallinfo(arena+hblkhd)
          8527 MiB available memory on the node where the printing process lives
------------------
     ethr =  4.14E-11,  avg # of iterations =  9.0

     negative rho (up, down):  1.140E-04 0.000E+00

     total cpu time spent up to now is     1181.8 secs

     total energy              =    -143.29794634 Ry
     estimated scf accuracy    <       0.00000005 Ry

     iteration # 34     ecut=    80.00 Ry     beta= 0.30
     Davidson diagonalization with overlap

---- Real-time Memory Report at c_bands before calling an iterative solver
          7881 MiB given to the printing process from OS
           -47 MiB allocation reported by mallinfo(arena+hblkhd)
          8523 MiB available memory on the node where the printing process lives
------------------
     ethr =  4.14E-11,  avg # of iterations =  8.0

     negative rho (up, down):  1.140E-04 0.000E+00

     total cpu time spent up to now is     1221.6 secs

     total energy              =    -143.29794634 Ry
     estimated scf accuracy    <       0.00000004 Ry

     iteration # 35     ecut=    80.00 Ry     beta= 0.30
     Davidson diagonalization with overlap

---- Real-time Memory Report at c_bands before calling an iterative solver
          7881 MiB given to the printing process from OS
           -47 MiB allocation reported by mallinfo(arena+hblkhd)
          8523 MiB available memory on the node where the printing process lives
------------------
     ethr =  4.14E-11,  avg # of iterations =  9.0

     negative rho (up, down):  1.140E-04 0.000E+00

     total cpu time spent up to now is     1261.5 secs

     total energy              =    -143.29794636 Ry
     estimated scf accuracy    <          9.7E-09 Ry

     iteration # 36     ecut=    80.00 Ry     beta= 0.30
     Davidson diagonalization with overlap

---- Real-time Memory Report at c_bands before calling an iterative solver
          7881 MiB given to the printing process from OS
           -47 MiB allocation reported by mallinfo(arena+hblkhd)
          8522 MiB available memory on the node where the printing process lives
------------------
     ethr =  3.47E-11,  avg # of iterations =  1.0

     negative rho (up, down):  1.140E-04 0.000E+00

     total cpu time spent up to now is     1293.6 secs

     total energy              =    -143.29794635 Ry
     estimated scf accuracy    <          2.9E-09 Ry

     iteration # 37     ecut=    80.00 Ry     beta= 0.30
     Davidson diagonalization with overlap

---- Real-time Memory Report at c_bands before calling an iterative solver
          7881 MiB given to the printing process from OS
           -47 MiB allocation reported by mallinfo(arena+hblkhd)
          8520 MiB available memory on the node where the printing process lives
------------------
     ethr =  1.04E-11,  avg # of iterations =  6.0

     negative rho (up, down):  1.140E-04 0.000E+00

     total cpu time spent up to now is     1329.3 secs

     total energy              =    -143.29794636 Ry
     estimated scf accuracy    <          8.6E-10 Ry

     iteration # 38     ecut=    80.00 Ry     beta= 0.30
     Davidson diagonalization with overlap

---- Real-time Memory Report at c_bands before calling an iterative solver
          7881 MiB given to the printing process from OS
           -47 MiB allocation reported by mallinfo(arena+hblkhd)
          8527 MiB available memory on the node where the printing process lives
------------------
     ethr =  3.05E-12,  avg # of iterations =  2.0

     negative rho (up, down):  1.140E-04 0.000E+00

     total cpu time spent up to now is     1362.0 secs

     total energy              =    -143.29794636 Ry
     estimated scf accuracy    <          3.3E-10 Ry

     iteration # 39     ecut=    80.00 Ry     beta= 0.30
     Davidson diagonalization with overlap

---- Real-time Memory Report at c_bands before calling an iterative solver
          7881 MiB given to the printing process from OS
           -47 MiB allocation reported by mallinfo(arena+hblkhd)
          8527 MiB available memory on the node where the printing process lives
------------------
     ethr =  1.18E-12,  avg # of iterations =  6.0

     negative rho (up, down):  1.140E-04 0.000E+00

     total cpu time spent up to now is     1398.3 secs

     total energy              =    -143.29794636 Ry
     estimated scf accuracy    <          1.7E-10 Ry

     iteration # 40     ecut=    80.00 Ry     beta= 0.30
     Davidson diagonalization with overlap

---- Real-time Memory Report at c_bands before calling an iterative solver
          7881 MiB given to the printing process from OS
           -47 MiB allocation reported by mallinfo(arena+hblkhd)
          8527 MiB available memory on the node where the printing process lives
------------------
     ethr =  6.08E-13,  avg # of iterations =  1.0

     negative rho (up, down):  1.140E-04 0.000E+00

     total cpu time spent up to now is     1431.2 secs

     total energy              =    -143.29794636 Ry
     estimated scf accuracy    <          1.3E-10 Ry

     iteration # 41     ecut=    80.00 Ry     beta= 0.30
     Davidson diagonalization with overlap

---- Real-time Memory Report at c_bands before calling an iterative solver
          7881 MiB given to the printing process from OS
           -47 MiB allocation reported by mallinfo(arena+hblkhd)
          8524 MiB available memory on the node where the printing process lives
------------------
     ethr =  4.80E-13,  avg # of iterations =  2.0

     negative rho (up, down):  1.140E-04 0.000E+00

     total cpu time spent up to now is     1463.7 secs

     End of self-consistent calculation

          k = 0.0000 0.0000 0.0000 (166858 PWs)   bands (ev):

   -27.1955 -25.9175 -19.5347 -16.3217 -14.9348 -12.8580 -11.6245 -11.0344
   -10.6849 -10.4356  -9.3126  -9.0527  -6.3459  -6.2231

     occupation numbers 
     1.0000   1.0000   1.0000   1.0000   1.0000   1.0000   1.0000   1.0000
     1.0000   1.0000   1.0000   1.0000   1.0000   1.0000

     highest occupied level (ev):    -6.2231

!    total energy              =    -143.29794636 Ry
     total all-electron energy =      -534.284001 Ry
     estimated scf accuracy    <          7.4E-11 Ry

     The total energy is the sum of the following terms:
     one-electron contribution =    -372.25258978 Ry
     hartree contribution      =     190.55872621 Ry
     xc contribution           =     -31.48135377 Ry
     ewald contribution        =     107.56166706 Ry
     one-center paw contrib.   =     -37.68439608 Ry
      -> PAW hartree energy AE =      86.37525947 Ry
      -> PAW hartree energy PS =     -86.28019890 Ry
      -> PAW xc energy AE      =     -68.31459736 Ry
      -> PAW xc energy PS      =      30.53514070 Ry
      -> total E_H with PAW    =     190.65378679 Ry
      -> total E_XC with PAW   =     -69.26081043 Ry

     convergence has been achieved in  41 iterations

     negative rho (up, down):  1.140E-04 0.000E+00

     Forces acting on atoms (cartesian axes, Ry/au):

     atom    1 type  3   force =    -0.00643658    0.01490204   -0.00341122
     atom    2 type  2   force =    -0.00181104   -0.00663056    0.00781084
     atom    3 type  1   force =     0.00822604   -0.03808006   -0.01302964
     atom    4 type  2   force =    -0.01835565    0.02837833    0.00788821
     atom    5 type  1   force =    -0.01376090   -0.00298158    0.00427711
     atom    6 type  2   force =     0.01128511    0.00589367   -0.00445911
     atom    7 type  1   force =     0.04393489   -0.00883953    0.00280120
     atom    8 type  3   force =    -0.01146604    0.00036297   -0.00470446
     atom    9 type  2   force =    -0.01161583    0.00699472    0.00282708
     The non-local contrib.  to forces
     atom    1 type  3   force =     2.27377892    0.67707564   -0.00125077
     atom    2 type  2   force =    -0.04076868    0.05850728    0.00098965
     atom    3 type  1   force =    -0.28244809   -0.34533399   -0.00259249
     atom    4 type  2   force =     0.03892884   -0.07374743    0.01178545
     atom    5 type  1   force =    -0.04097448   -0.03656154    0.00813439
     atom    6 type  2   force =    -0.04469150   -0.06535814   -0.00231701
     atom    7 type  1   force =    -0.11868842   -0.20423627    0.00196199
     atom    8 type  3   force =     0.82699476    2.25124793   -0.07098090
     atom    9 type  2   force =    -0.07167097    0.00931709    0.00585059
     The ionic contribution  to forces
     atom    1 type  3   force =   -13.69354014   -3.65405641    0.03700555
     atom    2 type  2   force =    -0.32782506   -2.87490137   -0.06282204
     atom    3 type  1   force =    -1.83609496    7.88567062    0.20395289
     atom    4 type  2   force =    -1.56756253    3.15359285   -0.36169331
     atom    5 type  1   force =     4.57035348    5.82937912    0.27212076
     atom    6 type  2   force =     1.95619878    2.76950067    0.09075649
     atom    7 type  1   force =     8.13402049    1.57217857   -0.24187973
     atom    8 type  3   force =    -0.55573334  -14.36074776    0.29652993
     atom    9 type  2   force =     3.32018328   -0.32061629   -0.23397054
     The local contribution  to forces
     atom    1 type  3   force =    11.43085686    2.99725493   -0.03915870
     atom    2 type  2   force =     0.36678267    2.80976255    0.06964356
     atom    3 type  1   force =     2.12075401   -7.58260777   -0.21388430
     atom    4 type  2   force =     1.51027721   -3.05146749    0.35779639
     atom    5 type  1   force =    -4.54135737   -5.79497339   -0.27564383
     atom    6 type  2   force =    -1.90022250   -2.69824833   -0.09289825
     atom    7 type  1   force =    -7.96975732   -1.37722178    0.24262988
     atom    8 type  3   force =    -0.27712536   12.12629512   -0.23080419
     atom    9 type  2   force =    -3.26012828    0.31829290    0.23094731
     The core correction contribution to forces
     atom    1 type  3   force =    -0.01753405   -0.00537341   -0.00000673
     atom    2 type  2   force =     0.00000000    0.00000000    0.00000000
     atom    3 type  1   force =     0.00601091    0.00418943   -0.00050548
     atom    4 type  2   force =     0.00000000    0.00000000    0.00000000
     atom    5 type  1   force =    -0.00178573   -0.00082564   -0.00033381
     atom    6 type  2   force =     0.00000000    0.00000000    0.00000000
     atom    7 type  1   force =    -0.00164426    0.00043097    0.00008954
     atom    8 type  3   force =    -0.00560762   -0.01644070    0.00055127
     atom    9 type  2   force =     0.00000000    0.00000000    0.00000000
     The Hubbard contrib.    to forces
     atom    1 type  3   force =     0.00000000    0.00000000    0.00000000
     atom    2 type  2   force =     0.00000000    0.00000000    0.00000000
     atom    3 type  1   force =     0.00000000    0.00000000    0.00000000
     atom    4 type  2   force =     0.00000000    0.00000000    0.00000000
     atom    5 type  1   force =     0.00000000    0.00000000    0.00000000
     atom    6 type  2   force =     0.00000000    0.00000000    0.00000000
     atom    7 type  1   force =     0.00000000    0.00000000    0.00000000
     atom    8 type  3   force =     0.00000000    0.00000000    0.00000000
     atom    9 type  2   force =     0.00000000    0.00000000    0.00000000
     The SCF correction term to forces
     atom    1 type  3   force =     0.00000129    0.00000107   -0.00000024
     atom    2 type  2   force =    -0.00000051    0.00000077   -0.00000001
     atom    3 type  1   force =     0.00000365    0.00000144    0.00000006
     atom    4 type  2   force =     0.00000030    0.00000018    0.00000001
     atom    5 type  1   force =     0.00000268   -0.00000035   -0.00000007
     atom    6 type  2   force =    -0.00000020   -0.00000075   -0.00000002
     atom    7 type  1   force =     0.00000389    0.00000876   -0.00000016
     atom    8 type  3   force =     0.00000498    0.00000817   -0.00000025
     atom    9 type  2   force =    -0.00000038    0.00000079    0.00000005

     Total force =     0.077690     Total SCF correction =     0.000015

     Writing all to output data dir ./tmp/st90x_replay95_a1.save/ :
     XML data file, charge density, pseudopotentials, collected wavefunctions

     init_run     :     30.83s CPU     38.82s WALL (       1 calls)
     electrons    :   1007.71s CPU   1425.02s WALL (       1 calls)
     forces       :     18.31s CPU     25.33s WALL (       1 calls)

     Called by init_run:
     wfcinit      :      3.46s CPU      3.65s WALL (       1 calls)
     wfcinit:atom :      0.02s CPU      0.04s WALL (       1 calls)
     wfcinit:wfcr :      3.27s CPU      3.39s WALL (       1 calls)
     potinit      :      8.89s CPU     12.05s WALL (       1 calls)
     hinit0       :     10.52s CPU     11.35s WALL (       1 calls)

     Called by electrons:
     c_bands      :    166.06s CPU    177.69s WALL (      41 calls)
     sum_band     :    320.73s CPU    485.47s WALL (      41 calls)
     v_of_rho     :    234.87s CPU    318.64s WALL (      42 calls)
     v_h          :     26.06s CPU     32.28s WALL (      42 calls)
     v_xc         :    213.82s CPU    293.37s WALL (      43 calls)
     newd         :    205.57s CPU    354.64s WALL (      42 calls)
     PAW_pot      :      4.20s CPU      4.23s WALL (      42 calls)
     mix_rho      :     54.52s CPU     63.72s WALL (      41 calls)

     Called by c_bands:
     init_us_2    :      4.49s CPU      4.55s WALL (      84 calls)
     regterg      :    161.61s CPU    173.22s WALL (      41 calls)

     Called by sum_band:
     sum_band:wei :      0.00s CPU      0.00s WALL (      41 calls)
     sum_band:loo :     32.09s CPU     36.70s WALL (      41 calls)
     sum_band:buf :      0.00s CPU      0.00s WALL (      41 calls)
     sum_band:ini :      2.09s CPU      2.09s WALL (      41 calls)
     sum_band:cal :      0.96s CPU      0.96s WALL (      41 calls)
     sum_band:bec :      0.00s CPU      0.00s WALL (      41 calls)
     addusdens    :    261.81s CPU    416.80s WALL (      41 calls)
                                        0.00s GPU  (      41 calls)
     addusd:skk   :      6.86s CPU     16.60s WALL (     123 calls)
                                        0.00s GPU  (     123 calls)

     Called by *egterg:
     rdiaghg      :      0.03s CPU      0.04s WALL (     225 calls)
     regterg:over :      3.06s CPU      3.07s WALL (     184 calls)
     regterg:upda :      2.69s CPU      2.69s WALL (     184 calls)
     regterg:last :      5.42s CPU      5.42s WALL (     110 calls)
     h_psi        :    146.63s CPU    158.22s WALL (     226 calls)
     s_psi        :      3.21s CPU      3.22s WALL (     226 calls)
     g_psi        :      0.81s CPU      0.82s WALL (     184 calls)

     Called by h_psi:
     h_psi:calbec :      3.80s CPU      3.85s WALL (     226 calls)
     vloc_psi     :    138.85s CPU    150.33s WALL (     226 calls)
                                        0.00s GPU  (     226 calls)
     add_vuspsi   :      3.25s CPU      3.27s WALL (     226 calls)

     General routines
     calbec       :      4.84s CPU      4.90s WALL (     271 calls)
     fft          :    183.68s CPU    184.10s WALL (     469 calls)
     ffts         :      7.98s CPU      8.03s WALL (      83 calls)
     fftw         :    123.35s CPU    123.47s WALL (    2193 calls)
     interpolate  :     25.52s CPU     30.49s WALL (      42 calls)

     Parallel routines

     PAW routines
     PAW_pot      :      4.20s CPU      4.23s WALL (      42 calls)

     PWSCF        :  17m37.01s CPU  24m49.69s WALL


   This run was terminated on:   9:10:32  15Sep2026            

=------------------------------------------------------------------------------=
   JOB DONE.
=------------------------------------------------------------------------------=
