
     Program PWSCF v.7.5 starts on  5Oct2026 at 12: 1:21 

     This program is part of the open-source Quantum ESPRESSO suite
     for quantum simulation of materials; please cite
         "P. Giannozzi et al., J. Phys.:Condens. Matter 21 395502 (2009);
         "P. Giannozzi et al., J. Phys.:Condens. Matter 29 465901 (2017);
         "P. Giannozzi et al., J. Chem. Phys. 152 154105 (2020);
          URL http://www.quantum-espresso.org", 
     in publications or presentations arising from this work. More details at
     http://www.quantum-espresso.org/quote

     Parallel version (MPI & OpenMP), running on       6 processor cores
     Number of MPI processes:                 1
     Threads/MPI process:                     6

     MPI processes distributed on     1 nodes
     8562 MiB available memory on the printing compute node when the environment starts

     Reading input from pw.in

     Current dimensions of program PWSCF are:
     Max number of different atomic species (ntypx) = 10
     Max number of k-points (npk) =  40000
     Max angular momentum in pseudopotentials (lmaxx) =  4
     file C.pbe-n-kjpaw_psl.1.0.0.UPF: wavefunction(s)  2S 2P renormalized
     file H.pbe-kjpaw_psl.1.0.0.UPF: wavefunction(s)  1S renormalized
     file O.pbe-n-kjpaw_psl.1.0.0.UPF: wavefunction(s)  2S 2P renormalized

     IMPORTANT: XC functional enforced from input :
     Exchange-correlation= PBE
                           (   1   4   3   4   0   0   0)
     Any further DFT definition will be discarded
     Please, verify this is what you really want


     gamma-point specific algorithms are used

     Subspace diagonalization in iterative solution of the eigenvalue problem:
     a serial algorithm will be used


     G-vector sticks info
     --------------------
     sticks:   dense  smooth     PW     G-vecs:    dense   smooth      PW
     Sum       69849   23281   5813             13885619  2672421  333715

     Using Slab Decomposition



     bravais-lattice index     =            0
     lattice parameter (alat)  =      30.2356  a.u.
     unit-cell volume          =   27641.1781 (a.u.)^3
     number of atoms/cell      =            9
     number of atomic types    =            3
     number of electrons       =        28.00
     number of Kohn-Sham states=           14
     kinetic-energy cutoff     =      80.0000  Ry
     charge density cutoff     =     960.0000  Ry
     scf convergence threshold =      1.0E-10
     mixing beta               =       0.3000
     number of iterations used =            8  plain     mixing
     Exchange-correlation= PBE
                           (   1   4   3   4   0   0   0)

     celldm(1)=  30.235618  celldm(2)=   0.000000  celldm(3)=   0.000000
     celldm(4)=   0.000000  celldm(5)=   0.000000  celldm(6)=   0.000000

     crystal axes: (cart. coord. in units of alat)
               a(1) = (   1.000000   0.000000   0.000000 )  
               a(2) = (   0.000000   1.000000   0.000000 )  
               a(3) = (   0.000000   0.000000   1.000000 )  

     reciprocal axes: (cart. coord. in units 2 pi/alat)
               b(1) = (  1.000000  0.000000  0.000000 )  
               b(2) = (  0.000000  1.000000  0.000000 )  
               b(3) = (  0.000000  0.000000  1.000000 )  


     PseudoPot. # 1 for C  read from file:
     ./PSEUDO/C.pbe-n-kjpaw_psl.1.0.0.UPF
     MD5 check sum: 5f16ad9a65e90284d1d834d4ab3b0f7d
     Pseudo is Projector augmented-wave + core cor, Zval =  4.0
     Generated using &quot;atomic&quot; code by A. Dal Corso  v.6.3
     Shape of augmentation charge: PSQ
     Using radial grid of 1073 points,  4 beta functions with: 
                l(1) =   0
                l(2) =   0
                l(3) =   1
                l(4) =   1
     Q(r) pseudized with 0 coefficients 


     PseudoPot. # 2 for H  read from file:
     ./PSEUDO/H.pbe-kjpaw_psl.1.0.0.UPF
     MD5 check sum: d81a744832360e4a8af0b0b5b123bc2a
     Pseudo is Projector augmented-wave, Zval =  1.0
     Generated using &quot;atomic&quot; code by A. Dal Corso  v.6.3MaX
     Shape of augmentation charge: PSQ
     Using radial grid of  929 points,  2 beta functions with: 
                l(1) =   0
                l(2) =   0
     Q(r) pseudized with 0 coefficients 


     PseudoPot. # 3 for O  read from file:
     ./PSEUDO/O.pbe-n-kjpaw_psl.1.0.0.UPF
     MD5 check sum: e99d9cef9b487d1ca56f5b95ecd0fd7a
     Pseudo is Projector augmented-wave + core cor, Zval =  6.0
     Generated using &quot;atomic&quot; code by A. Dal Corso  v.6.3
     Shape of augmentation charge: PSQ
     Using radial grid of 1095 points,  4 beta functions with: 
                l(1) =   0
                l(2) =   0
                l(3) =   1
                l(4) =   1
     Q(r) pseudized with 0 coefficients 


     atomic species   valence    mass     pseudopotential
     C                 4.00    12.01100     C ( 1.00)
     H                 1.00     1.00800     H ( 1.00)
     O                 6.00    15.99900     O ( 1.00)

     No symmetry found


                                    s                        frac. trans.

      isym =  1     identity                                     

 cryst.   s( 1) = (     1          0          0      )
                  (     0          1          0      )
                  (     0          0          1      )

 cart.    s( 1) = (  1.0000000  0.0000000  0.0000000 )
                  (  0.0000000  1.0000000  0.0000000 )
                  (  0.0000000  0.0000000  1.0000000 )


   Cartesian axes

     site n.     atom                  positions (alat units)
         1        O      tau(   1) = (   0.4053473   0.5017726   0.5006166  )
         2        H      tau(   2) = (   0.4719759   0.4336074   0.5043440  )
         3        C      tau(   3) = (   0.4529373   0.5658385   0.4996020  )
         4        H      tau(   4) = (   0.4216686   0.6281427   0.4947801  )
         5        C      tau(   5) = (   0.5421106   0.5585994   0.5000667  )
         6        H      tau(   6) = (   0.5837700   0.6118660   0.5017951  )
         7        C      tau(   7) = (   0.5775357   0.4796018   0.5002902  )
         8        O      tau(   8) = (   0.5324400   0.4110600   0.4991805  )
         9        H      tau(   9) = (   0.6451435   0.4702037   0.5027915  )

   Crystallographic axes

     site n.     atom                  positions (cryst. coord.)
         1        O      tau(   1) = (  0.4053473  0.5017726  0.5006166  )
         2        H      tau(   2) = (  0.4719759  0.4336074  0.5043440  )
         3        C      tau(   3) = (  0.4529373  0.5658385  0.4996020  )
         4        H      tau(   4) = (  0.4216686  0.6281427  0.4947801  )
         5        C      tau(   5) = (  0.5421106  0.5585994  0.5000667  )
         6        H      tau(   6) = (  0.5837700  0.6118660  0.5017951  )
         7        C      tau(   7) = (  0.5775357  0.4796018  0.5002902  )
         8        O      tau(   8) = (  0.5324400  0.4110600  0.4991805  )
         9        H      tau(   9) = (  0.6451435  0.4702037  0.5027915  )

     number of k points=     1
                       cart. coord. in units 2pi/alat
        k(    1) = (   0.0000000   0.0000000   0.0000000), wk =   2.0000000

                       cryst. coord.
        k(    1) = (   0.0000000   0.0000000   0.0000000), wk =   2.0000000

     Dense  grid:  6942810 G-vectors     FFT dimensions: ( 300, 300, 300)

     Smooth grid:  1336211 G-vectors     FFT dimensions: ( 180, 180, 180)

     Dynamical RAM for                 wfc:      35.67 MB

     Dynamical RAM for     wfc (w. buffer):      35.67 MB

     Dynamical RAM for           str. fact:     317.82 MB

     Dynamical RAM for           local pot:       0.00 MB

     Dynamical RAM for          nlocal pot:     122.31 MB

     Dynamical RAM for                qrad:       2.13 MB

     Dynamical RAM for          rho,v,vnew:     935.80 MB

     Dynamical RAM for               rhoin:     311.93 MB

     Dynamical RAM for            rho*nmix:    1695.02 MB

     Dynamical RAM for           G-vectors:     407.47 MB

     Dynamical RAM for          h,s,v(r/c):       0.02 MB

     Dynamical RAM for          <psi|beta>:       0.01 MB

     Dynamical RAM for                 psi:      71.35 MB

     Dynamical RAM for                hpsi:      71.35 MB

     Dynamical RAM for                spsi:      71.35 MB

     Dynamical RAM for      wfcinit/wfcrot:      71.35 MB

     Dynamical RAM for           addusdens:    4979.13 MB

     Dynamical RAM for          addusforce:    5667.73 MB

     Estimated static dynamical RAM per process >       3.50 GB

     Estimated max dynamical RAM per process >      10.69 GB

     Initial potential from superposition of free atoms

     starting charge      27.9998, renormalised to      28.0000

     negative rho (up, down):  1.473E-04 0.000E+00
     Starting wfcs are   24 randomized atomic wfcs
     Checking if some PAW data can be deallocated... 

     total cpu time spent up to now is       32.0 secs

     Self-consistent Calculation

     iteration #  1     ecut=    80.00 Ry     beta= 0.30
     Davidson diagonalization with overlap

---- Real-time Memory Report at c_bands before calling an iterative solver
          6823 MiB given to the printing process from OS
          -775 MiB allocation reported by mallinfo(arena+hblkhd)
          6072 MiB available memory on the node where the printing process lives
------------------
     ethr =  1.00E-02,  avg # of iterations =  2.0

     negative rho (up, down):  1.058E-05 0.000E+00

     total cpu time spent up to now is       57.9 secs

     total energy              =    -143.19620297 Ry
     estimated scf accuracy    <       0.78050885 Ry

     iteration #  2     ecut=    80.00 Ry     beta= 0.30
     Davidson diagonalization with overlap

---- Real-time Memory Report at c_bands before calling an iterative solver
          7553 MiB given to the printing process from OS
          -375 MiB allocation reported by mallinfo(arena+hblkhd)
          5674 MiB available memory on the node where the printing process lives
------------------
     ethr =  2.79E-03,  avg # of iterations =  2.0

     negative rho (up, down):  2.162E-04 0.000E+00

     total cpu time spent up to now is       83.0 secs

     total energy              =    -143.15508859 Ry
     estimated scf accuracy    <       0.32162740 Ry

     iteration #  3     ecut=    80.00 Ry     beta= 0.30
     Davidson diagonalization with overlap

---- Real-time Memory Report at c_bands before calling an iterative solver
          7594 MiB given to the printing process from OS
          -334 MiB allocation reported by mallinfo(arena+hblkhd)
          5630 MiB available memory on the node where the printing process lives
------------------
     ethr =  1.15E-03,  avg # of iterations =  9.0

     negative rho (up, down):  4.558E-05 0.000E+00

     total cpu time spent up to now is      110.5 secs

     total energy              =    -143.27943039 Ry
     estimated scf accuracy    <       0.28961720 Ry

     iteration #  4     ecut=    80.00 Ry     beta= 0.30
     Davidson diagonalization with overlap

---- Real-time Memory Report at c_bands before calling an iterative solver
          7635 MiB given to the printing process from OS
          -294 MiB allocation reported by mallinfo(arena+hblkhd)
          5593 MiB available memory on the node where the printing process lives
------------------
     ethr =  1.03E-03,  avg # of iterations =  2.0

     negative rho (up, down):  1.283E-04 0.000E+00

     total cpu time spent up to now is      135.1 secs

     total energy              =    -143.20580987 Ry
     estimated scf accuracy    <       0.12842830 Ry

     iteration #  5     ecut=    80.00 Ry     beta= 0.30
     Davidson diagonalization with overlap

---- Real-time Memory Report at c_bands before calling an iterative solver
          7676 MiB given to the printing process from OS
          -253 MiB allocation reported by mallinfo(arena+hblkhd)
          5555 MiB available memory on the node where the printing process lives
------------------
     ethr =  4.59E-04,  avg # of iterations = 12.0

     negative rho (up, down):  1.148E-04 0.000E+00

     total cpu time spent up to now is      167.0 secs

     total energy              =    -143.20347411 Ry
     estimated scf accuracy    <       0.82549850 Ry

     iteration #  6     ecut=    80.00 Ry     beta= 0.30
     Davidson diagonalization with overlap

---- Real-time Memory Report at c_bands before calling an iterative solver
          7717 MiB given to the printing process from OS
          -212 MiB allocation reported by mallinfo(arena+hblkhd)
          5508 MiB available memory on the node where the printing process lives
------------------
     ethr =  4.59E-04,  avg # of iterations =  8.0

     negative rho (up, down):  1.235E-04 0.000E+00

     total cpu time spent up to now is      194.8 secs

     total energy              =    -143.28518885 Ry
     estimated scf accuracy    <       0.06272290 Ry

     iteration #  7     ecut=    80.00 Ry     beta= 0.30
     Davidson diagonalization with overlap

---- Real-time Memory Report at c_bands before calling an iterative solver
          7757 MiB given to the printing process from OS
          -171 MiB allocation reported by mallinfo(arena+hblkhd)
          5473 MiB available memory on the node where the printing process lives
------------------
     ethr =  2.24E-04,  avg # of iterations =  2.0

     negative rho (up, down):  8.984E-05 0.000E+00

     total cpu time spent up to now is      219.3 secs

     total energy              =    -143.28294906 Ry
     estimated scf accuracy    <       0.02920452 Ry

     iteration #  8     ecut=    80.00 Ry     beta= 0.30
     Davidson diagonalization with overlap

---- Real-time Memory Report at c_bands before calling an iterative solver
          7798 MiB given to the printing process from OS
          -130 MiB allocation reported by mallinfo(arena+hblkhd)
          5431 MiB available memory on the node where the printing process lives
------------------
     ethr =  1.04E-04,  avg # of iterations =  6.0

     negative rho (up, down):  1.398E-04 0.000E+00

     total cpu time spent up to now is      245.8 secs

     total energy              =    -143.29599232 Ry
     estimated scf accuracy    <       0.01353608 Ry

     iteration #  9     ecut=    80.00 Ry     beta= 0.30
     Davidson diagonalization with overlap

---- Real-time Memory Report at c_bands before calling an iterative solver
          7839 MiB given to the printing process from OS
           -90 MiB allocation reported by mallinfo(arena+hblkhd)
          5392 MiB available memory on the node where the printing process lives
------------------
     ethr =  4.83E-05,  avg # of iterations =  2.0

     negative rho (up, down):  1.408E-04 0.000E+00

     total cpu time spent up to now is      270.9 secs

     total energy              =    -143.29638221 Ry
     estimated scf accuracy    <       0.00220459 Ry

     iteration # 10     ecut=    80.00 Ry     beta= 0.30
     Davidson diagonalization with overlap

---- Real-time Memory Report at c_bands before calling an iterative solver
          7880 MiB given to the printing process from OS
           -49 MiB allocation reported by mallinfo(arena+hblkhd)
          5357 MiB available memory on the node where the printing process lives
------------------
     ethr =  7.87E-06,  avg # of iterations = 10.0

     negative rho (up, down):  1.337E-04 0.000E+00

     total cpu time spent up to now is      300.6 secs

     total energy              =    -143.30010016 Ry
     estimated scf accuracy    <       0.00925125 Ry

     iteration # 11     ecut=    80.00 Ry     beta= 0.30
     Davidson diagonalization with overlap

---- Real-time Memory Report at c_bands before calling an iterative solver
          7880 MiB given to the printing process from OS
           -49 MiB allocation reported by mallinfo(arena+hblkhd)
          5447 MiB available memory on the node where the printing process lives
------------------
     ethr =  7.87E-06,  avg # of iterations =  1.0

     negative rho (up, down):  1.335E-04 0.000E+00

     total cpu time spent up to now is      325.9 secs

     total energy              =    -143.29695855 Ry
     estimated scf accuracy    <       0.00704673 Ry

     iteration # 12     ecut=    80.00 Ry     beta= 0.30
     Davidson diagonalization with overlap

---- Real-time Memory Report at c_bands before calling an iterative solver
          7880 MiB given to the printing process from OS
           -49 MiB allocation reported by mallinfo(arena+hblkhd)
          5454 MiB available memory on the node where the printing process lives
------------------
     ethr =  7.87E-06,  avg # of iterations =  9.0

     negative rho (up, down):  1.196E-04 0.000E+00

     total cpu time spent up to now is      355.5 secs

     total energy              =    -143.29905796 Ry
     estimated scf accuracy    <       0.00025645 Ry

     iteration # 13     ecut=    80.00 Ry     beta= 0.30
     Davidson diagonalization with overlap

---- Real-time Memory Report at c_bands before calling an iterative solver
          7880 MiB given to the printing process from OS
           -49 MiB allocation reported by mallinfo(arena+hblkhd)
          5452 MiB available memory on the node where the printing process lives
------------------
     ethr =  9.16E-07,  avg # of iterations =  5.0

     negative rho (up, down):  1.129E-04 0.000E+00

     total cpu time spent up to now is      382.2 secs

     total energy              =    -143.29908853 Ry
     estimated scf accuracy    <       0.00085570 Ry

     iteration # 14     ecut=    80.00 Ry     beta= 0.30
     Davidson diagonalization with overlap

---- Real-time Memory Report at c_bands before calling an iterative solver
          7880 MiB given to the printing process from OS
           -49 MiB allocation reported by mallinfo(arena+hblkhd)
          5455 MiB available memory on the node where the printing process lives
------------------
     ethr =  9.16E-07,  avg # of iterations =  1.0

     negative rho (up, down):  1.133E-04 0.000E+00

     total cpu time spent up to now is      407.1 secs

     total energy              =    -143.29883565 Ry
     estimated scf accuracy    <       0.00063750 Ry

     iteration # 15     ecut=    80.00 Ry     beta= 0.30
     Davidson diagonalization with overlap

---- Real-time Memory Report at c_bands before calling an iterative solver
          7880 MiB given to the printing process from OS
           -49 MiB allocation reported by mallinfo(arena+hblkhd)
          5448 MiB available memory on the node where the printing process lives
------------------
     ethr =  9.16E-07,  avg # of iterations =  6.0

     negative rho (up, down):  1.114E-04 0.000E+00

     total cpu time spent up to now is      434.9 secs

     total energy              =    -143.29898935 Ry
     estimated scf accuracy    <       0.00003676 Ry

     iteration # 16     ecut=    80.00 Ry     beta= 0.30
     Davidson diagonalization with overlap

---- Real-time Memory Report at c_bands before calling an iterative solver
          7880 MiB given to the printing process from OS
           -49 MiB allocation reported by mallinfo(arena+hblkhd)
          5438 MiB available memory on the node where the printing process lives
------------------
     ethr =  1.31E-07,  avg # of iterations =  5.0

     negative rho (up, down):  1.112E-04 0.000E+00

     total cpu time spent up to now is      460.4 secs

     total energy              =    -143.29899920 Ry
     estimated scf accuracy    <       0.00001580 Ry

     iteration # 17     ecut=    80.00 Ry     beta= 0.30
     Davidson diagonalization with overlap

---- Real-time Memory Report at c_bands before calling an iterative solver
          7880 MiB given to the printing process from OS
           -49 MiB allocation reported by mallinfo(arena+hblkhd)
          5449 MiB available memory on the node where the printing process lives
------------------
     ethr =  5.64E-08,  avg # of iterations =  9.0

     negative rho (up, down):  1.113E-04 0.000E+00

     total cpu time spent up to now is      487.5 secs

     total energy              =    -143.29900377 Ry
     estimated scf accuracy    <       0.00004691 Ry

     iteration # 18     ecut=    80.00 Ry     beta= 0.30
     Davidson diagonalization with overlap

---- Real-time Memory Report at c_bands before calling an iterative solver
          7880 MiB given to the printing process from OS
           -49 MiB allocation reported by mallinfo(arena+hblkhd)
          5451 MiB available memory on the node where the printing process lives
------------------
     ethr =  5.64E-08,  avg # of iterations =  2.0

     negative rho (up, down):  1.129E-04 0.000E+00

     total cpu time spent up to now is      513.4 secs

     total energy              =    -143.29899400 Ry
     estimated scf accuracy    <       0.00004091 Ry

     iteration # 19     ecut=    80.00 Ry     beta= 0.30
     Davidson diagonalization with overlap

---- Real-time Memory Report at c_bands before calling an iterative solver
          7880 MiB given to the printing process from OS
           -49 MiB allocation reported by mallinfo(arena+hblkhd)
          5437 MiB available memory on the node where the printing process lives
------------------
     ethr =  5.64E-08,  avg # of iterations =  5.0

     negative rho (up, down):  1.128E-04 0.000E+00

     total cpu time spent up to now is      540.4 secs

     total energy              =    -143.29899752 Ry
     estimated scf accuracy    <       0.00002491 Ry

     iteration # 20     ecut=    80.00 Ry     beta= 0.30
     Davidson diagonalization with overlap

---- Real-time Memory Report at c_bands before calling an iterative solver
          7880 MiB given to the printing process from OS
           -49 MiB allocation reported by mallinfo(arena+hblkhd)
          5451 MiB available memory on the node where the printing process lives
------------------
     ethr =  5.64E-08,  avg # of iterations =  2.0

     negative rho (up, down):  1.126E-04 0.000E+00

     total cpu time spent up to now is      565.6 secs

     total energy              =    -143.29899355 Ry
     estimated scf accuracy    <       0.00001704 Ry

     iteration # 21     ecut=    80.00 Ry     beta= 0.30
     Davidson diagonalization with overlap

---- Real-time Memory Report at c_bands before calling an iterative solver
          7880 MiB given to the printing process from OS
           -49 MiB allocation reported by mallinfo(arena+hblkhd)
          5447 MiB available memory on the node where the printing process lives
------------------
     ethr =  5.64E-08,  avg # of iterations =  5.0

     negative rho (up, down):  1.125E-04 0.000E+00

     total cpu time spent up to now is      591.5 secs

     total energy              =    -143.29899557 Ry
     estimated scf accuracy    <       0.00000307 Ry

     iteration # 22     ecut=    80.00 Ry     beta= 0.30
     Davidson diagonalization with overlap

---- Real-time Memory Report at c_bands before calling an iterative solver
          7880 MiB given to the printing process from OS
           -49 MiB allocation reported by mallinfo(arena+hblkhd)
          5438 MiB available memory on the node where the printing process lives
------------------
     ethr =  1.10E-08,  avg # of iterations =  7.0

     negative rho (up, down):  1.127E-04 0.000E+00

     total cpu time spent up to now is      618.2 secs

     total energy              =    -143.29899728 Ry
     estimated scf accuracy    <       0.00000169 Ry

     iteration # 23     ecut=    80.00 Ry     beta= 0.30
     Davidson diagonalization with overlap

---- Real-time Memory Report at c_bands before calling an iterative solver
          7880 MiB given to the printing process from OS
           -49 MiB allocation reported by mallinfo(arena+hblkhd)
          5451 MiB available memory on the node where the printing process lives
------------------
     ethr =  6.02E-09,  avg # of iterations =  2.0

     negative rho (up, down):  1.129E-04 0.000E+00

     total cpu time spent up to now is      643.0 secs

     total energy              =    -143.29899712 Ry
     estimated scf accuracy    <       0.00000105 Ry

     iteration # 24     ecut=    80.00 Ry     beta= 0.30
     Davidson diagonalization with overlap

---- Real-time Memory Report at c_bands before calling an iterative solver
          7880 MiB given to the printing process from OS
           -49 MiB allocation reported by mallinfo(arena+hblkhd)
          5440 MiB available memory on the node where the printing process lives
------------------
     ethr =  3.76E-09,  avg # of iterations =  7.0

     negative rho (up, down):  1.132E-04 0.000E+00

     total cpu time spent up to now is      669.4 secs

     total energy              =    -143.29899764 Ry
     estimated scf accuracy    <       0.00000094 Ry

     iteration # 25     ecut=    80.00 Ry     beta= 0.30
     Davidson diagonalization with overlap

---- Real-time Memory Report at c_bands before calling an iterative solver
          7880 MiB given to the printing process from OS
           -49 MiB allocation reported by mallinfo(arena+hblkhd)
          5440 MiB available memory on the node where the printing process lives
------------------
     ethr =  3.37E-09,  avg # of iterations =  2.0

     negative rho (up, down):  1.133E-04 0.000E+00

     total cpu time spent up to now is      694.3 secs

     total energy              =    -143.29899731 Ry
     estimated scf accuracy    <       0.00000120 Ry

     iteration # 26     ecut=    80.00 Ry     beta= 0.30
     Davidson diagonalization with overlap

---- Real-time Memory Report at c_bands before calling an iterative solver
          7880 MiB given to the printing process from OS
           -49 MiB allocation reported by mallinfo(arena+hblkhd)
          5452 MiB available memory on the node where the printing process lives
------------------
     ethr =  3.37E-09,  avg # of iterations =  1.0

     negative rho (up, down):  1.133E-04 0.000E+00

     total cpu time spent up to now is      718.8 secs

     total energy              =    -143.29899710 Ry
     estimated scf accuracy    <       0.00000065 Ry

     iteration # 27     ecut=    80.00 Ry     beta= 0.30
     Davidson diagonalization with overlap

---- Real-time Memory Report at c_bands before calling an iterative solver
          7880 MiB given to the printing process from OS
           -49 MiB allocation reported by mallinfo(arena+hblkhd)
          5453 MiB available memory on the node where the printing process lives
------------------
     ethr =  2.31E-09,  avg # of iterations =  2.0

     negative rho (up, down):  1.133E-04 0.000E+00

     total cpu time spent up to now is      744.1 secs

     total energy              =    -143.29899720 Ry
     estimated scf accuracy    <       0.00000016 Ry

     iteration # 28     ecut=    80.00 Ry     beta= 0.30
     Davidson diagonalization with overlap

---- Real-time Memory Report at c_bands before calling an iterative solver
          7880 MiB given to the printing process from OS
           -49 MiB allocation reported by mallinfo(arena+hblkhd)
          5453 MiB available memory on the node where the printing process lives
------------------
     ethr =  5.66E-10,  avg # of iterations = 13.0

     negative rho (up, down):  1.133E-04 0.000E+00

     total cpu time spent up to now is      772.9 secs

     total energy              =    -143.29899730 Ry
     estimated scf accuracy    <       0.00000004 Ry

     iteration # 29     ecut=    80.00 Ry     beta= 0.30
     Davidson diagonalization with overlap

---- Real-time Memory Report at c_bands before calling an iterative solver
          7880 MiB given to the printing process from OS
           -49 MiB allocation reported by mallinfo(arena+hblkhd)
          5451 MiB available memory on the node where the printing process lives
------------------
     ethr =  1.31E-10,  avg # of iterations =  2.0

     negative rho (up, down):  1.134E-04 0.000E+00

     total cpu time spent up to now is      798.4 secs

     total energy              =    -143.29899729 Ry
     estimated scf accuracy    <       0.00000002 Ry

     iteration # 30     ecut=    80.00 Ry     beta= 0.30
     Davidson diagonalization with overlap

---- Real-time Memory Report at c_bands before calling an iterative solver
          7880 MiB given to the printing process from OS
           -49 MiB allocation reported by mallinfo(arena+hblkhd)
          5441 MiB available memory on the node where the printing process lives
------------------
     ethr =  8.63E-11,  avg # of iterations = 12.0

     negative rho (up, down):  1.134E-04 0.000E+00

     total cpu time spent up to now is      828.4 secs

     total energy              =    -143.29899729 Ry
     estimated scf accuracy    <       0.00000007 Ry

     iteration # 31     ecut=    80.00 Ry     beta= 0.30
     Davidson diagonalization with overlap

---- Real-time Memory Report at c_bands before calling an iterative solver
          7880 MiB given to the printing process from OS
           -49 MiB allocation reported by mallinfo(arena+hblkhd)
          5451 MiB available memory on the node where the printing process lives
------------------
     ethr =  8.63E-11,  avg # of iterations =  2.0

     negative rho (up, down):  1.133E-04 0.000E+00

     total cpu time spent up to now is      853.2 secs

     total energy              =    -143.29899729 Ry
     estimated scf accuracy    <       0.00000003 Ry

     iteration # 32     ecut=    80.00 Ry     beta= 0.30
     Davidson diagonalization with overlap

---- Real-time Memory Report at c_bands before calling an iterative solver
          7880 MiB given to the printing process from OS
           -49 MiB allocation reported by mallinfo(arena+hblkhd)
          5452 MiB available memory on the node where the printing process lives
------------------
     ethr =  8.63E-11,  avg # of iterations =  8.0

     negative rho (up, down):  1.134E-04 0.000E+00

     total cpu time spent up to now is      880.1 secs

     total energy              =    -143.29899730 Ry
     estimated scf accuracy    <       0.00000001 Ry

     iteration # 33     ecut=    80.00 Ry     beta= 0.30
     Davidson diagonalization with overlap

---- Real-time Memory Report at c_bands before calling an iterative solver
          7880 MiB given to the printing process from OS
           -49 MiB allocation reported by mallinfo(arena+hblkhd)
          5448 MiB available memory on the node where the printing process lives
------------------
     ethr =  4.39E-11,  avg # of iterations =  2.0

     negative rho (up, down):  1.134E-04 0.000E+00

     total cpu time spent up to now is      905.5 secs

     total energy              =    -143.29899730 Ry
     estimated scf accuracy    <       0.00000002 Ry

     iteration # 34     ecut=    80.00 Ry     beta= 0.30
     Davidson diagonalization with overlap

---- Real-time Memory Report at c_bands before calling an iterative solver
          7880 MiB given to the printing process from OS
           -49 MiB allocation reported by mallinfo(arena+hblkhd)
          5448 MiB available memory on the node where the printing process lives
------------------
     ethr =  4.39E-11,  avg # of iterations =  2.0

     negative rho (up, down):  1.134E-04 0.000E+00

     total cpu time spent up to now is      930.4 secs

     total energy              =    -143.29899730 Ry
     estimated scf accuracy    <          7.6E-09 Ry

     iteration # 35     ecut=    80.00 Ry     beta= 0.30
     Davidson diagonalization with overlap

---- Real-time Memory Report at c_bands before calling an iterative solver
          7880 MiB given to the printing process from OS
           -49 MiB allocation reported by mallinfo(arena+hblkhd)
          5445 MiB available memory on the node where the printing process lives
------------------
     ethr =  2.71E-11,  avg # of iterations =  2.0

     negative rho (up, down):  1.134E-04 0.000E+00

     total cpu time spent up to now is      954.9 secs

     total energy              =    -143.29899730 Ry
     estimated scf accuracy    <          3.9E-09 Ry

     iteration # 36     ecut=    80.00 Ry     beta= 0.30
     Davidson diagonalization with overlap

---- Real-time Memory Report at c_bands before calling an iterative solver
          7880 MiB given to the printing process from OS
           -49 MiB allocation reported by mallinfo(arena+hblkhd)
          5449 MiB available memory on the node where the printing process lives
------------------
     ethr =  1.40E-11,  avg # of iterations =  8.0

     negative rho (up, down):  1.134E-04 0.000E+00

     total cpu time spent up to now is      981.9 secs

     total energy              =    -143.29899730 Ry
     estimated scf accuracy    <          3.7E-10 Ry

     iteration # 37     ecut=    80.00 Ry     beta= 0.30
     Davidson diagonalization with overlap

---- Real-time Memory Report at c_bands before calling an iterative solver
          7880 MiB given to the printing process from OS
           -49 MiB allocation reported by mallinfo(arena+hblkhd)
          5453 MiB available memory on the node where the printing process lives
------------------
     ethr =  1.33E-12,  avg # of iterations =  8.0

     negative rho (up, down):  1.134E-04 0.000E+00

     total cpu time spent up to now is     1010.5 secs

     total energy              =    -143.29899730 Ry
     estimated scf accuracy    <          1.4E-09 Ry

     iteration # 38     ecut=    80.00 Ry     beta= 0.30
     Davidson diagonalization with overlap

---- Real-time Memory Report at c_bands before calling an iterative solver
          7880 MiB given to the printing process from OS
           -49 MiB allocation reported by mallinfo(arena+hblkhd)
          5451 MiB available memory on the node where the printing process lives
------------------
     ethr =  1.33E-12,  avg # of iterations =  5.0

     negative rho (up, down):  1.134E-04 0.000E+00

     total cpu time spent up to now is     1037.4 secs

     total energy              =    -143.29899730 Ry
     estimated scf accuracy    <          2.8E-10 Ry

     iteration # 39     ecut=    80.00 Ry     beta= 0.30
     Davidson diagonalization with overlap

---- Real-time Memory Report at c_bands before calling an iterative solver
          7880 MiB given to the printing process from OS
           -49 MiB allocation reported by mallinfo(arena+hblkhd)
          5451 MiB available memory on the node where the printing process lives
------------------
     ethr =  9.95E-13,  avg # of iterations =  2.0

     negative rho (up, down):  1.134E-04 0.000E+00

     total cpu time spent up to now is     1062.0 secs

     total energy              =    -143.29899730 Ry
     estimated scf accuracy    <          3.7E-10 Ry

     iteration # 40     ecut=    80.00 Ry     beta= 0.30
     Davidson diagonalization with overlap

---- Real-time Memory Report at c_bands before calling an iterative solver
          7880 MiB given to the printing process from OS
           -49 MiB allocation reported by mallinfo(arena+hblkhd)
          5447 MiB available memory on the node where the printing process lives
------------------
     ethr =  9.95E-13,  avg # of iterations =  1.0

     negative rho (up, down):  1.134E-04 0.000E+00

     total cpu time spent up to now is     1086.6 secs

     total energy              =    -143.29899730 Ry
     estimated scf accuracy    <          3.3E-10 Ry

     iteration # 41     ecut=    80.00 Ry     beta= 0.30
     Davidson diagonalization with overlap

---- Real-time Memory Report at c_bands before calling an iterative solver
          7880 MiB given to the printing process from OS
           -49 MiB allocation reported by mallinfo(arena+hblkhd)
          5450 MiB available memory on the node where the printing process lives
------------------
     ethr =  9.95E-13,  avg # of iterations =  2.0

     negative rho (up, down):  1.134E-04 0.000E+00

     total cpu time spent up to now is     1111.0 secs

     total energy              =    -143.29899730 Ry
     estimated scf accuracy    <          3.5E-10 Ry

     iteration # 42     ecut=    80.00 Ry     beta= 0.30
     Davidson diagonalization with overlap

---- Real-time Memory Report at c_bands before calling an iterative solver
          7880 MiB given to the printing process from OS
           -49 MiB allocation reported by mallinfo(arena+hblkhd)
          5450 MiB available memory on the node where the printing process lives
------------------
     ethr =  9.95E-13,  avg # of iterations =  2.0

     negative rho (up, down):  1.134E-04 0.000E+00

     total cpu time spent up to now is     1135.9 secs

     total energy              =    -143.29899730 Ry
     estimated scf accuracy    <          1.8E-10 Ry

     iteration # 43     ecut=    80.00 Ry     beta= 0.30
     Davidson diagonalization with overlap

---- Real-time Memory Report at c_bands before calling an iterative solver
          7880 MiB given to the printing process from OS
           -49 MiB allocation reported by mallinfo(arena+hblkhd)
          5448 MiB available memory on the node where the printing process lives
------------------
     ethr =  6.31E-13,  avg # of iterations = 10.0

     negative rho (up, down):  1.134E-04 0.000E+00

     total cpu time spent up to now is     1162.3 secs

     End of self-consistent calculation

          k = 0.0000 0.0000 0.0000 (166858 PWs)   bands (ev):

   -27.3124 -25.6983 -19.4153 -16.2806 -14.9562 -12.8001 -11.6627 -10.9488
   -10.6049 -10.4853  -9.2666  -9.0169  -6.2940  -6.2301

     occupation numbers 
     1.0000   1.0000   1.0000   1.0000   1.0000   1.0000   1.0000   1.0000
     1.0000   1.0000   1.0000   1.0000   1.0000   1.0000

     highest occupied level (ev):    -6.2301

!    total energy              =    -143.29899730 Ry
     total all-electron energy =      -534.285052 Ry
     estimated scf accuracy    <          6.9E-11 Ry

     The total energy is the sum of the following terms:
     one-electron contribution =    -369.77106302 Ry
     hartree contribution      =     189.31547764 Ry
     xc contribution           =     -31.42098885 Ry
     ewald contribution        =     106.26029347 Ry
     one-center paw contrib.   =     -37.68271654 Ry
      -> PAW hartree energy AE =      85.65331571 Ry
      -> PAW hartree energy PS =     -85.55863623 Ry
      -> PAW xc energy AE      =     -68.14265305 Ry
      -> PAW xc energy PS      =      30.36525702 Ry
      -> total E_H with PAW    =     189.41015712 Ry
      -> total E_XC with PAW   =     -69.19838488 Ry

     convergence has been achieved in  43 iterations

     negative rho (up, down):  1.134E-04 0.000E+00

     Forces acting on atoms (cartesian axes, Ry/au):

     atom    1 type  3   force =     0.02337219    0.02495092    0.00502231
     atom    2 type  2   force =    -0.01660446   -0.00308884   -0.01094644
     atom    3 type  1   force =    -0.02018691   -0.02034324   -0.01143860
     atom    4 type  2   force =     0.01314761   -0.00805102    0.00561888
     atom    5 type  1   force =    -0.00078269   -0.01242680    0.00524873
     atom    6 type  2   force =    -0.00273771    0.01097768   -0.00144696
     atom    7 type  1   force =    -0.00641575    0.01727051    0.00335795
     atom    8 type  3   force =     0.00803506   -0.00707278    0.00959372
     atom    9 type  2   force =     0.00217264   -0.00221644   -0.00500958
     The non-local contrib.  to forces
     atom    1 type  3   force =     1.76072766    1.58482992    0.00355569
     atom    2 type  2   force =     0.07444236   -0.02224044   -0.00681759
     atom    3 type  1   force =    -0.13344829   -0.21528643    0.00372818
     atom    4 type  2   force =     0.03419081   -0.06452780    0.00544288
     atom    5 type  1   force =    -0.02300785   -0.05328968    0.01858643
     atom    6 type  2   force =    -0.04869241   -0.06132116   -0.00209190
     atom    7 type  1   force =    -0.19811501   -0.37379067   -0.01639513
     atom    8 type  3   force =    -0.18821147    2.40619167    0.13931333
     atom    9 type  2   force =    -0.07872803    0.01055696   -0.00334864
     The ionic contribution  to forces
     atom    1 type  3   force =   -12.91380017   -5.33104322    0.12273781
     atom    2 type  2   force =    -2.73351936   -1.14919666    0.36220156
     atom    3 type  1   force =    -1.30706859    8.13304117   -0.03348693
     atom    4 type  2   force =    -1.42628625    2.99374857   -0.19235563
     atom    5 type  1   force =     3.83344062    6.11024715   -0.03773953
     atom    6 type  2   force =     2.01035049    2.69677500    0.06922258
     atom    7 type  1   force =     7.95703182    1.07705417    0.02826376
     atom    8 type  3   force =     1.16539950  -14.14612472   -0.42509642
     atom    9 type  2   force =     3.41445193   -0.38450147    0.10625279
     The local contribution  to forces
     atom    1 type  3   force =    11.18974953    3.78275946   -0.12118139
     atom    2 type  2   force =     2.64247441    1.16834672   -0.36633060
     atom    3 type  1   force =     1.41944584   -7.93771910    0.01851478
     atom    4 type  2   force =     1.40524248   -2.93727248    0.19253167
     atom    5 type  1   force =    -3.81138254   -6.06772652    0.02461007
     atom    6 type  2   force =    -1.96439549   -2.62447654   -0.06857764
     atom    7 type  1   force =    -7.76637740   -0.69250306   -0.00891472
     atom    8 type  3   force =    -0.97052441   11.75128024    0.29638880
     atom    9 type  2   force =    -3.33355245    0.37172695   -0.10791387
     The core correction contribution to forces
     atom    1 type  3   force =    -0.01330555   -0.01159705   -0.00009006
     atom    2 type  2   force =     0.00000000    0.00000000    0.00000000
     atom    3 type  1   force =     0.00088242   -0.00038131   -0.00019463
     atom    4 type  2   force =     0.00000000    0.00000000    0.00000000
     atom    5 type  1   force =     0.00016768   -0.00166282   -0.00020872
     atom    6 type  2   force =     0.00000000    0.00000000    0.00000000
     atom    7 type  1   force =     0.00104263    0.00650134    0.00040342
     atom    8 type  3   force =     0.00137428   -0.01841619   -0.00101139
     atom    9 type  2   force =     0.00000000    0.00000000    0.00000000
     The Hubbard contrib.    to forces
     atom    1 type  3   force =     0.00000000    0.00000000    0.00000000
     atom    2 type  2   force =     0.00000000    0.00000000    0.00000000
     atom    3 type  1   force =     0.00000000    0.00000000    0.00000000
     atom    4 type  2   force =     0.00000000    0.00000000    0.00000000
     atom    5 type  1   force =     0.00000000    0.00000000    0.00000000
     atom    6 type  2   force =     0.00000000    0.00000000    0.00000000
     atom    7 type  1   force =     0.00000000    0.00000000    0.00000000
     atom    8 type  3   force =     0.00000000    0.00000000    0.00000000
     atom    9 type  2   force =     0.00000000    0.00000000    0.00000000
     The SCF correction term to forces
     atom    1 type  3   force =     0.00000033    0.00000114    0.00000026
     atom    2 type  2   force =    -0.00000226    0.00000087    0.00000019
     atom    3 type  1   force =     0.00000132    0.00000176   -0.00000001
     atom    4 type  2   force =     0.00000018    0.00000001   -0.00000004
     atom    5 type  1   force =    -0.00000099    0.00000440    0.00000048
     atom    6 type  2   force =    -0.00000070   -0.00000029   -0.00000000
     atom    7 type  1   force =     0.00000181    0.00000806    0.00000062
     atom    8 type  3   force =    -0.00000323   -0.00000446   -0.00000059
     atom    9 type  2   force =     0.00000080    0.00000045    0.00000013

     Total force =     0.061035     Total SCF correction =     0.000012

     Writing all to output data dir ./tmp/diag119_replay146.save/ :
     XML data file, charge density, pseudopotentials, collected wavefunctions

     init_run     :     74.12s CPU     31.94s WALL (       1 calls)
     electrons    :   1683.06s CPU   1130.58s WALL (       1 calls)
     forces       :     24.59s CPU     17.25s WALL (       1 calls)

     Called by init_run:
     wfcinit      :     13.30s CPU      3.21s WALL (       1 calls)
     wfcinit:atom :      0.03s CPU      0.05s WALL (       1 calls)
     wfcinit:wfcr :     13.10s CPU      2.93s WALL (       1 calls)
     potinit      :     18.49s CPU      8.41s WALL (       1 calls)
     hinit0       :     34.46s CPU      8.77s WALL (       1 calls)

     Called by electrons:
     c_bands      :    651.68s CPU    146.99s WALL (      43 calls)
     sum_band     :    381.79s CPU    429.24s WALL (      43 calls)
     v_of_rho     :    315.93s CPU    175.36s WALL (      44 calls)
     v_h          :     43.70s CPU     18.89s WALL (      44 calls)
     v_xc         :    278.45s CPU    160.30s WALL (      45 calls)
     newd         :    202.73s CPU    328.72s WALL (      44 calls)
     PAW_pot      :     17.16s CPU      2.96s WALL (      44 calls)
     mix_rho      :     79.61s CPU     39.73s WALL (      43 calls)

     Called by c_bands:
     init_us_2    :      3.76s CPU      3.84s WALL (      88 calls)
     regterg      :    647.66s CPU    142.96s WALL (      43 calls)

     Called by sum_band:
     sum_band:wei :      0.00s CPU      0.00s WALL (      43 calls)
     sum_band:loo :    102.90s CPU     31.10s WALL (      43 calls)
     sum_band:buf :      0.00s CPU      0.00s WALL (      43 calls)
     sum_band:ini :      1.84s CPU      1.85s WALL (      43 calls)
     sum_band:cal :      1.98s CPU      0.90s WALL (      43 calls)
     sum_band:bec :      0.00s CPU      0.00s WALL (      43 calls)
     addusdens    :    234.12s CPU    379.91s WALL (      43 calls)
                                        0.00s GPU  (      43 calls)
     addusd:skk   :      6.23s CPU     16.25s WALL (     129 calls)
                                        0.00s GPU  (     129 calls)

     Called by *egterg:
     rdiaghg      :      0.36s CPU      0.13s WALL (     250 calls)
     regterg:over :      6.08s CPU      2.87s WALL (     207 calls)
     regterg:upda :      7.77s CPU      2.25s WALL (     207 calls)
     regterg:last :     11.76s CPU      4.78s WALL (     118 calls)
     h_psi        :    614.10s CPU    129.47s WALL (     251 calls)
     s_psi        :     16.10s CPU      3.20s WALL (     251 calls)
     g_psi        :      1.48s CPU      0.80s WALL (     207 calls)

     Called by h_psi:
     h_psi:calbec :      3.58s CPU      3.59s WALL (     251 calls)
     vloc_psi     :    606.12s CPU    122.29s WALL (     251 calls)
                                        0.00s GPU  (     251 calls)
     add_vuspsi   :      3.07s CPU      3.09s WALL (     251 calls)

     General routines
     calbec       :      5.88s CPU      4.58s WALL (     298 calls)
     fft          :    305.44s CPU     57.57s WALL (     491 calls)
     ffts         :     18.89s CPU      4.00s WALL (      87 calls)
     fftw         :    551.10s CPU     95.57s WALL (    2289 calls)
     interpolate  :     46.64s CPU     16.73s WALL (      44 calls)

     Parallel routines

     PAW routines
     PAW_pot      :     17.16s CPU      2.96s WALL (      44 calls)

     PWSCF        :  29m41.97s CPU  19m40.31s WALL


   This run was terminated on:  12:21: 1   5Oct2026            

=------------------------------------------------------------------------------=
   JOB DONE.
=------------------------------------------------------------------------------=
